* Running in serial mode
>> Start of run:   8-APR-2020  10:51:33

reinit: Reading from standard input
reinit: Dumped input in INPUT_TMP.06382
************************** Dump of input data file ****************************
SystemName      Calcium titanate (CaTiO3) cubic structure
#               Cubic phase
#               PBE-SOL functional
#               Theoretical lattice constant obtained for the Hamann pseudos
#               (taken from the pseudo-dojo web page)
#               Mesh Cutoff: 600 Ry
#               Monkhorst-Pack grid: 6 x 6 x 6 ; displaced 0.5 0.5 0.5
SystemLabel	CaTiO3
NumberOfSpecies	3
NumberOfAtoms	5
%block ChemicalSpeciesLabel
      1      20     Ca
      2      22     Ti
      3       8     O
%endblock ChemicalSpeciesLabel
%block PS.lmax
   Ca    3
   Ti    3
    O    3
%endblock PS.lmax
PAO.Basis  < CaTiO3basis.fdf
LatticeConstant       3.4657227 Ang
                                      #    cubic phase
%block LatticeVectors
  1.00  0.00  0.00
  0.00  1.00  0.00
  0.00  0.00  1.00
%endblock LatticeVectors
AtomicCoordinatesFormat	     Fractional
%block AtomicCoordinatesAndAtomicSpecies
  0.00  0.00  0.00       1      40.078      Ca
  0.50  0.50  0.50       2      47.867      Ti
  0.00  0.50  0.50       3      15.9994     O
  0.50  0.00  0.50       3      15.9994     O
  0.50  0.50  0.00       3      15.9994     O
%endblock AtomicCoordinatesAndAtomicSpecies
WriteCoorStep           .true.        #  Write the atomic coordinates to
                                      #     standard output at every
                                      #     MD time step or relaxation step.
%block kgrid_Monkhorst_Pack
   6  0  0  0.5
   0  6  0  0.5
   0  0  6  0.5
%endblock kgrid_Monkhorst_Pack
#
# DFT, Grid, SCF
#
2
%endblock XC.cocktail
MeshCutoff             600 Ry      # Defines the plane wave cutoff for the grid
DM.NumberPulay         3           # It controls the Pulay convergence
                                   #   accelerator.
DM.UseSaveDM           .true.      # Use the Density Matrix from the DM file
                                   #   if found
DM.Tolerance           1.d-4       # Tolerance in maximum difference
                                   # between input and output DM
MaxSCFIterations       100         # Maximum number of SCF Iterations
ElectronicTemperature  0.075 eV    # Electronic Temperature for the smearing
                                   #   of the Fermi-Dirac occupation function
SCF.MixAfterConvergence .false.    # Logical variable to indicate whether mixing
                                   #   is done in the last SCF cycle
                                   #   (after convergence has been achieved)
                                   #   or not.
                                   #   Not mixing after convergence improves
                                   #   the quality of the final Kohn-Sham
                                   #   energy and of the forces when mixing
                                   #   the DM.
#
# Molecular Dynamic or Relaxation variables
#
MD.TypeOfRun            cg          # Type of dynamics:
                                    #   - CG
                                    #   - Verlet
                                    #   - Nose
                                    #   - Parrinello-Rahman
                                    #   - Nose-Parrinello-Rahman
                                    #   - Anneal
                                    #   - FC
MD.VariableCell         .true.      # The lattice is relaxed together with
                                    # the atomic coordinates?
MD.NumCGsteps            20          # Number of CG steps for
                                    #   coordinate optimization
MD.MaxCGDispl           0.3 Bohr    # Maximum atomic displacement
                                    #   in one CG step
MD.MaxForceTol         0.01 eV/Ang  # Tolerance in the maximum
                                    #   atomic force
MD.MaxStressTol        0.0001 eV/Ang**3
                                    # Tolerance in the maximum
                                    #   stress in a MD.VariableCell CG optimi.
MD.UseSaveXV           .false.      # Instructs Siesta to read the
                                    #   atomic positions and velocities stored
                                    #   in file SystemLabel.XV by a
                                    #   previous run.
MD.UseSaveCG           .false.      # Instructs to read the conjugate-gradient
                                    #   hystory information stored in file
                                    #   SystemLabel.CG by a previous run.
#
# Plotting the band structure
#
BandLinesScale pi/a
%block BandLines
1   0.0 0.0 0.0 \Gamma              # Start at \Gamma
100 1.0 0.0 0.0 X                   # 100 points from \Gamma to X
100 1.0 1.0 0.0 M                   # 100 points from X to M
100 1.0 1.0 1.0 R                   # 100 points from M to R
173 0.0 0.0 0.0 \Gamma              # 173 points from R to \Gamma
141 0.0 1.0 1.0 M                   # 141 points from \Gamma to M
100 0.0 0.0 1.0 X                   # 100 points from M to X
141 1.0 1.0 1.0 R                   # 141 points from X to R
%endblock BandLines
#
# Plotting the Projected Density Of States
#
%block ProjectedDensityOfStates
  -70.00  20.00  0.150 3000  eV
%endblock ProjectedDensityOfStates
%PDOS.kgrid_Monkhorst_Pack
   120  0  0  0.5
    0 120  0  0.5
    0  0 120  0.5
%end PDOS.kgrid_Monkhorst_Pack
************************** End of input data file *****************************

reinit: -----------------------------------------------------------------------
reinit: System Name: Calcium titanate (CaTiO3) cubic structure
reinit: -----------------------------------------------------------------------
reinit: System Label: CaTiO3
reinit: -----------------------------------------------------------------------

xc:
xc:  Cocktail exchange-correlation functional:
xc:
xc: Number     Functional     Authors     Weight(Ex)   Weight(Ec)
xc:

initatom: Reading input for the pseudopotentials and atomic orbitals ----------
Species number:   1 Atomic number:   20 Label: Ca
Species number:   2 Atomic number:   22 Label: Ti
Species number:   3 Atomic number:    8 Label: O

Ground state valence configuration:   4s02

Reading pseudopotential from: Ca.psml

PSML file version: 1.1
GGA--PBEsol XC_GGA_X_PBE_SOL--XC_GGA_C_PBE_SOL ps
 Using ATOM defaults for log grid...
PSML uuid: 3fe16a80-1d65-11e8-75e6-335877f7152c
Dumping pseudopotential information in formatted form in Ca.psdump
Ground state valence configuration:   4s02  3d02

[...]

PSML file version: 1.1
GGA--PBEsol XC_GGA_X_PBE_SOL--XC_GGA_C_PBE_SOL ps
 Using ATOM defaults for log grid...
PSML uuid: 4b1d8b90-1d65-11e8-71dd-645aef4ba7d4
Dumping pseudopotential information in formatted form in Ti.psdump
Ground state valence configuration:   2s02  2p04

Reading pseudopotential from: O.psml

PSML file version: 1.1
GGA--PBEsol XC_GGA_X_PBE_SOL--XC_GGA_C_PBE_SOL ps
 Using ATOM defaults for log grid...
PSML uuid: fa630a90-1d64-11e8-7ddc-64dedbfaf3ff
Dumping pseudopotential information in formatted form in O.psdump
Semicore shell(s) with  8 electrons included in the valence for
Ca
Semicore shell(s) with  8 electrons included in the valence for
Ti
relmxkb: Read Max KB Ang. Momentum=    3 for species Ca
relmxkb: Read Max KB Ang. Momentum=    3 for species Ti
relmxkb: Read Max KB Ang. Momentum=    3 for species O
Pseudopotential only contains V_ls up to l=2 -- lmxkb reset.
Pseudopotential only contains V_ls up to l=2 -- lmxkb reset.
Pseudopotential only contains V_ls up to l=2 -- lmxkb reset.

<basis_specs>
Ca                   Z=  20    Mass=  40.080        Charge=-0.17090E-01
Lmxo=2 Lmxkb= 2    BasisType=split      Semic=T
L=0  Nsemic=1  Cnfigmx=4
          n=1  nzeta=1  polorb=0  (3s)
            splnorm:   0.15000
               vcte:    62.189
               rinn:    4.8192
               qcoe:    0.0000
               qyuk:    0.0000
               qwid:   0.10000E-01
                rcs:    5.5305
            lambdas:    1.0000
          n=2  nzeta=2  polorb=0  (4s)
            splnorm:   0.15000
               vcte:    181.85
               rinn:    5.4983
               qcoe:    0.0000
               qyuk:    0.0000
               qwid:   0.10000E-01
                rcs:    6.6166      5.1838
            lambdas:    1.0000      1.0000
L=1  Nsemic=1  Cnfigmx=4
          n=1  nzeta=1  polorb=0  (3p)
            splnorm:   0.15000
               vcte:    43.485
               rinn:    4.2885
               qcoe:    0.0000
               qyuk:    0.0000
               qwid:   0.10000E-01
                rcs:    6.9894
            lambdas:    1.0000
          n=2  nzeta=1  polorb=0  (4p)
            splnorm:   0.15000
               vcte:    136.69
               rinn:    4.9908
               qcoe:    0.0000
               qyuk:    0.0000
               qwid:   0.10000E-01
                rcs:    7.4225
            lambdas:    1.0000
L=2  Nsemic=0  Cnfigmx=3
          n=1  nzeta=1  polorb=0  (3d)
            splnorm:   0.15000
               vcte:    82.574
               rinn:    5.7791
               qcoe:    0.0000
               qyuk:    0.0000
               qwid:   0.10000E-01
                rcs:    6.4171
            lambdas:    1.0000
L=0  Nkbl=2  erefs: 0.17977+309 0.17977+309
L=1  Nkbl=2  erefs: 0.17977+309 0.17977+309
L=2  Nkbl=1  erefs: 0.17977+309
</basis_specs>

atom: Called for Ca                    (Z =  20)

read_vps: Pseudopotential generation method:
read_vps: ONCVPSP-3.Hamann's oncvpsp
Total valence charge:   10.00000

read_vps: Pseudopotential includes a core correction:
read_vps: Pseudo-core for xc-correction

xc_check: Exchange-correlation functional:
xc_check: WARNING: Pseudopotential generated with GGA PBEsol functional

xc_check: Exchange-correlation functional:
xc_check: WARNING: Pseudopotential generated with GGA PBEsol functional
Got Vlocal (oncv-fit) from psml data
Choosing vlocal chloc cutoff:  2.905847
qtot up to nchloc:   10.00003822
atom: Maximum radius forchloc:    2.90585
atom: Maximum radius for r*vlocal+2*Zval:    2.90585
Reading KB projs from Ca psml data
Using scalar-relativistic projectors in PSML file

PSML: Kleinman-Bylander projectors:
   l= 0   rc=  1.479470   Ekb= 20.109694
   l= 0   rc=  1.479470   Ekb=  1.947554
   l= 1   rc=  1.479470   Ekb=  5.997917
   l= 1   rc=  1.479470   Ekb=  0.916204
   l= 2   rc=  1.876112   Ekb= -6.894596
   l= 2   rc=  1.876112   Ekb= -2.183301

PSML: Total number of  Kleinman-Bylander projectors:  18
atom: -------------------------------------------------------------------------

atom: SANKEY-TYPE ORBITALS:
atom: Selected multiple-zeta basis: split

atom: basis set generated (by rescaling the valence charge)
atom: for an anion of charge  -0.0171

SPLIT: Orbitals with angular momentum L= 0

SPLIT: Basis orbitals for state 3s

   izeta = 1
                 lambda =    1.000000
                     rc =    5.497235
                 energy =   -3.451482
                kinetic =    1.771210
    potential(screened) =   -5.222692
       potential(ionic) =  -16.719981

[...]

   izeta = 2
[...]
ExtMesh (bp) on 0 =   151 x   151 x   151 =     3442951
PhiOnMesh: Number of (b)points on node 0 =                19683
PhiOnMesh: nlist on node 0 =              3579575

stepf: Fermi-Dirac step function

siesta: Program's energy decomposition (eV):
siesta: Ebs     =      -870.972086
siesta: Eions   =      6014.726872
siesta: Ena     =       975.588556
siesta: Ekin    =      2092.915384
siesta: Enl     =      -189.695464
siesta: Eso     =         0.000000
siesta: Eldau   =         0.000000
siesta: DEna    =       -91.971813
siesta: DUscf   =        51.667538
siesta: DUext   =         0.000000
siesta: Enegf   =         0.000000
siesta: Exc     =      -813.785811
siesta: eta*DQ  =         0.000000
siesta: Emadel  =         0.000000
siesta: Emeta   =         0.000000
siesta: Emolmec =         0.000000
siesta: Ekinion =         0.000000
siesta: Eharris =     -3883.897021
siesta: Etot    =     -3990.008481
siesta: FreeEng =     -3990.008481

SCF Convergence by DM+H criterion
max |DM_out - DM_in|         :     0.0000838896
max |H_out - H_in|      (eV) :     0.0005366170
SCF cycle converged after 12 iterations

Using DM_out to compute the final energy and forces
No. of atoms with KB's overlaping orbs in proc 0. Max # of overlaps:      85     402

siesta: E_KS(eV) =            -4016.6386

siesta: E_KS - E_eggbox =     -4016.6386

siesta: Atomic forces (eV/Ang):
   Tot   -0.000000    0.000000   -0.000000
   Max    0.000000
   Res    0.000000    sqrt( Sum f_i^2 / 3N )
   Max    0.000000    constrained

Stress-tensor-Voigt (kbar):    -1202.10    -1202.10    -1202.10        0.00        0.00       -0.00
(Free)E + p*V (eV/cell)    -3985.4061
Target enthalpy (eV/cell)    -4016.6386

siesta: Stress tensor (static) (eV/Ang**3):
        -0.750283    0.000000   -0.000000
         0.000000   -0.750283   -0.000000
        -0.000000    0.000000   -0.750283

siesta: Pressure (static):       1202.09865984  kBar

siesta: Stress tensor (total) (eV/Ang**3):
        -0.750283    0.000000   -0.000000
         0.000000   -0.750283   -0.000000
        -0.000000    0.000000   -0.750283

siesta: Pressure (total):       1202.09865984  kBar

cgvc: No target stress found, assuming hydrostatic MD.TargetPressure.

cgvc: Target stress (kBar)
cgvc:        -0.000       0.000       0.000
cgvc:         0.000      -0.000       0.000
cgvc:         0.000       0.000      -0.000

[...]

outcoor: Atomic coordinates (fractional):
    0.00000000   -0.00000000   -0.00000000   1       1  Ca
    0.50000000    0.50000000    0.50000000   2       2  Ti
    0.00000000    0.50000000    0.50000000   3       3  O
    0.50000000    0.00000000    0.50000000   3       4  O
    0.50000000    0.50000000    0.00000000   3       5  O
 Kpoints in:          108 . Kpoints trimmed:          108

siesta: k-grid: Number of k-points =       108
siesta: k-points from Monkhorst-Pack grid
siesta: k-cutoff (effective) =    10.588 Ang
siesta: k-point supercell and displacements
siesta: k-grid:    6   0   0      0.500
siesta: k-grid:    0   6   0      0.500
siesta: k-grid:    0   0   6      0.500

[...]

outcell: Cell vector modules (Ang)   :    3.529254    3.529254    3.529254
outcell: Cell angles (23,13,12) (deg):     90.0000     90.0000     90.0000
outcell: Cell volume (Ang**3)        :     43.9591
<dSpData1D:S at geom step 1
  <sparsity:sparsity for geom step 1
    nrows_g=72 nrows=72 sparsity=24.9124 nnzs=129146, refcount: 7>
  <dData1D:(new from dSpData1D) n=129146, refcount: 1>
refcount: 1>
new_DM -- step:     2
Re-using DM from previous geometries...
Number of DMs in history: 1
 DM extrapolation coefficients:
1   1.00000
New DM after history re-use:
<dSpData2D:SpM extrapolated using coords
  <sparsity:sparsity for geom step 1
    nrows_g=72 nrows=72 sparsity=24.9124 nnzs=129146, refcount: 8>
  <dData2D:(temp array for extrapolation) n=129146 m=1, refcount: 1>
refcount: 1>
Note: For starting DM, Qtot, Tr[D*S] =         40.00000000         40.11099590
No. of atoms with KB's overlaping orbs in proc 0. Max # of overlaps:      76     383
New grid distribution:   1
           1       1:   27    1:   27    1:   27

[...]

        iscf     Eharris(eV)        E_KS(eV)     FreeEng(eV)     dDmax    Ef(eV) dHmax(eV)
   scf:    1    -4020.268229    -4018.133198    -4018.133198  0.102214 -5.814485  0.458091
   scf:    2    -4018.005145    -4018.106889    -4018.106889  0.130407 -6.121502  0.681536
   scf:    3    -4018.170964    -4018.153473    -4018.153473  0.075483 -5.954645  0.046113
   scf:    4    -4018.153595    -4018.153543    -4018.153543  0.002276 -5.959715  0.028946
   scf:    5    -4018.153578    -4018.153561    -4018.153561  0.001570 -5.961485  0.014479
   scf:    6    -4018.153571    -4018.153567    -4018.153567  0.001417 -5.963315  0.000795
   scf:    7    -4018.153567    -4018.153567    -4018.153567  0.000103 -5.963363  0.000278
   scf:    8    -4018.153567    -4018.153567    -4018.153567  0.000044 -5.963425  0.000189

[...]

outcell: Cell vector modules (Ang)   :    3.740942    3.740942    3.740942
outcell: Cell angles (23,13,12) (deg):     90.0000     90.0000     90.0000
outcell: Cell volume (Ang**3)        :     52.3532
<dSpData1D:S at geom step 3
  <sparsity:sparsity for geom step 3
    nrows_g=72 nrows=72 sparsity=19.4344 nnzs=100748, refcount: 7>
  <dData1D:(new from dSpData1D) n=100748, refcount: 1>
refcount: 1>
new_DM -- step:     4
Re-using DM from previous geometries...
Number of DMs in history: 1
 DM extrapolation coefficients:
1   1.00000
New DM after history re-use:
<dSpData2D:SpM extrapolated using coords
  <sparsity:sparsity for geom step 3
    nrows_g=72 nrows=72 sparsity=19.4344 nnzs=100748, refcount: 8>
  <dData2D:(temp array for extrapolation) n=100748 m=1, refcount: 1>
refcount: 1>
Note: For starting DM, Qtot, Tr[D*S] =         40.00000000         40.08655843
No. of atoms with KB's overlaping orbs in proc 0. Max # of overlaps:      64     346
New grid distribution:   1
           1       1:   30    1:   30    1:   30

[...]

outcell: Cell vector modules (Ang)   :    3.850981    3.850981    3.850981
outcell: Cell angles (23,13,12) (deg):     90.0000     90.0000     90.0000
outcell: Cell volume (Ang**3)        :     57.1103
<dSpData1D:S at geom step 4
  <sparsity:sparsity for geom step 4
    nrows_g=72 nrows=72 sparsity=17.5779 nnzs=91124, refcount: 7>
  <dData1D:(new from dSpData1D) n=91124, refcount: 1>
refcount: 1>
new_DM -- step:     5
Re-using DM from previous geometries...
Number of DMs in history: 1
 DM extrapolation coefficients:
1   1.00000
New DM after history re-use:
<dSpData2D:SpM extrapolated using coords
  <sparsity:sparsity for geom step 4
    nrows_g=72 nrows=72 sparsity=17.5779 nnzs=91124, refcount: 8>
  <dData2D:(temp array for extrapolation) n=91124 m=1, refcount: 1>
refcount: 1>
No. of atoms with KB's overlaping orbs in proc 0. Max # of overlaps:      52     340
New grid distribution:   1
           1       1:   30    1:   30    1:   30

[...]

                        Begin CG opt. move =      5

outcoor: Atomic coordinates (fractional):
    0.00000000   -0.00000000   -0.00000000   1       1  Ca
    0.50000000    0.50000000    0.50000000   2       2  Ti
    0.00000000    0.50000000    0.50000000   3       3  O
    0.50000000    0.00000000    0.50000000   3       4  O
    0.50000000    0.50000000    0.00000000   3       5  O
 Kpoints in:          108 . Kpoints trimmed:          108

siesta: k-grid: Number of k-points =       108
siesta: k-points from Monkhorst-Pack grid
siesta: k-cutoff (effective) =    11.552 Ang
siesta: k-point supercell and displacements
siesta: k-grid:    6   0   0      0.500
siesta: k-grid:    0   6   0      0.500
siesta: k-grid:    0   0   6      0.500

superc: Internal auxiliary supercell:     7 x     7 x     7  =     343
superc: Number of atoms, orbitals, and projectors:   1715  24696  25725

[...]

outcell: Cell vector modules (Ang)   :    3.850669    3.850669    3.850669
outcell: Cell angles (23,13,12) (deg):     90.0000     90.0000     90.0000
outcell: Cell volume (Ang**3)        :     57.0964
<dSpData1D:S at geom step 5
  <sparsity:sparsity for geom step 5
    nrows_g=72 nrows=72 sparsity=17.5779 nnzs=91124, refcount: 7>
  <dData1D:(new from dSpData1D) n=91124, refcount: 1>
refcount: 1>
new_DM -- step:     6
Re-using DM from previous geometries...
Number of DMs in history: 1
 DM extrapolation coefficients:
1   1.00000
New DM after history re-use:
<dSpData2D:SpM extrapolated using coords
  <sparsity:sparsity for geom step 5
    nrows_g=72 nrows=72 sparsity=17.5779 nnzs=91124, refcount: 8>
  <dData2D:(temp array for extrapolation) n=91124 m=1, refcount: 1>
refcount: 1>
No. of atoms with KB's overlaping orbs in proc 0. Max # of overlaps:      52     340
New grid distribution:   1
           1       1:   30    1:   30    1:   30

InitMesh: MESH =    60 x    60 x    60 =      216000
InitMesh: (bp) =    30 x    30 x    30 =       27000
InitMesh: Mesh cutoff (required, used) =   600.000   671.014 Ry
ExtMesh (bp) on 0 =   154 x   154 x   154 =     3652264
PhiOnMesh: Number of (b)points on node 0 =                27000
PhiOnMesh: nlist on node 0 =              3579758

        iscf     Eharris(eV)        E_KS(eV)     FreeEng(eV)     dDmax    Ef(eV) dHmax(eV)
   scf:    1    -4021.066787    -4021.068761    -4021.068762  0.000416 -5.526508  0.001757
   scf:    2    -4021.068758    -4021.068761    -4021.068761  0.000460 -5.525364  0.003163
   scf:    3    -4021.068762    -4021.068762    -4021.068762  0.000291 -5.526025  0.000196
   scf:    4    -4021.068762    -4021.068762    -4021.068762  0.000020 -5.525986  0.000158

SCF Convergence by DM+H criterion
max |DM_out - DM_in|         :     0.0000195569
max |H_out - H_in|      (eV) :     0.0001578537
SCF cycle converged after 4 iterations

Using DM_out to compute the final energy and forces
No. of atoms with KB's overlaping orbs in proc 0. Max # of overlaps:      52     340

siesta: E_KS(eV) =            -4021.0688

siesta: Atomic forces (eV/Ang):
   Tot   -0.000000   -0.000000    0.000000
   Max    0.000000
   Res    0.000000    sqrt( Sum f_i^2 / 3N )
   Max    0.000000    constrained

Stress-tensor-Voigt (kbar):        0.07        0.07        0.07        0.00       -0.00        0.00
(Free)E + p*V (eV/cell)    -4021.0712
Target enthalpy (eV/cell)    -4021.0688

siesta: Stress tensor (static) (eV/Ang**3):
         0.000042    0.000000    0.000000
         0.000000    0.000042   -0.000000
         0.000000   -0.000000    0.000042

siesta: Pressure (static):         -0.06782290  kBar

siesta: Stress tensor (total) (eV/Ang**3):
         0.000042    0.000000    0.000000
         0.000000    0.000042   -0.000000
         0.000000   -0.000000    0.000042

siesta: Pressure (total):         -0.06782290  kBar

outcoor: Relaxed atomic coordinates (fractional):
    0.00000000   -0.00000000   -0.00000000   1       1  Ca
    0.50000000    0.50000000    0.50000000   2       2  Ti
    0.00000000    0.50000000    0.50000000   3       3  O
    0.50000000    0.00000000    0.50000000   3       4  O
    0.50000000    0.50000000    0.00000000   3       5  O

outcell: Unit cell vectors (Ang):
        3.850669    0.000000    0.000000
        0.000000    3.850669    0.000000
        0.000000    0.000000    3.850669

outcell: Cell vector modules (Ang)   :    3.850669    3.850669    3.850669
outcell: Cell angles (23,13,12) (deg):     90.0000     90.0000     90.0000
outcell: Cell volume (Ang**3)        :     57.0964
Computing bands...

siesta: PDOS info
siesta: E1 -- E2, sigma [eV], nhist:  -70.000 --   20.000    0.150 3000

siesta: Program's energy decomposition (eV):
siesta: Ebs     =      -914.882938
siesta: Eions   =      6014.726872
siesta: Ena     =       995.242404
siesta: Ekin    =      1902.045046
siesta: Enl     =      -113.805142
siesta: Eso     =         0.000000
siesta: Eldau   =         0.000000
siesta: DEna    =       -24.985545
siesta: DUscf   =         7.459893
siesta: DUext   =         0.000000
siesta: Enegf   =         0.000000
siesta: Exc     =      -772.298546
siesta: eta*DQ  =         0.000000
siesta: Emadel  =         0.000000
siesta: Emeta   =         0.000000
siesta: Emolmec =         0.000000
siesta: Ekinion =         0.000000
siesta: Eharris =     -4021.068762
siesta: Etot    =     -4021.068762
siesta: FreeEng =     -4021.068762

siesta: Final energy (eV):
siesta:  Band Struct. =    -914.882938
siesta:       Kinetic =    1902.045046
siesta:       Hartree =     875.861191
siesta:       Eldau   =       0.000000
siesta:       Eso     =       0.000000
siesta:    Ext. field =       0.000000
siesta:       Enegf   =       0.000000
siesta:   Exch.-corr. =    -772.298546
siesta:  Ion-electron =   -3733.766746
siesta:       Ion-ion =   -2292.909706
siesta:       Ekinion =       0.000000
siesta:         Total =   -4021.068762
siesta:         Fermi =      -5.525986

siesta: Stress tensor (static) (eV/Ang**3):
siesta:     0.000042    0.000000    0.000000
siesta:     0.000000    0.000042   -0.000000
siesta:     0.000000   -0.000000    0.000042

siesta: Constrained stress tensor (static) (eV/Ang**3):
siesta:     0.000042    0.000000    0.000000
siesta:     0.000000    0.000042   -0.000000
siesta:     0.000000   -0.000000    0.000042

siesta: Cell volume =         57.096368 Ang**3

siesta: Pressure (static):
siesta:                Solid            Molecule  Units
siesta:          -0.00000046         -0.00000046  Ry/Bohr**3
siesta:          -0.00004233         -0.00004233  eV/Ang**3
siesta:          -0.06782290         -0.06782284  kBar
(Free)E+ p_basis*V_orbitals  =       -4017.547499
(Free)Eharris+ p_basis*V_orbitals  =       -4017.547499

Routine            Calls   Time/call    Tot.time        %
siesta                 1    1024.402    1024.402   100.00
Setup                  1       0.536       0.536     0.05
bands                  3       2.361       7.083     0.69
KSV_init               1       0.000       0.000     0.00
IterGeom               6     168.286    1009.716    98.57
state_init             6       1.551       9.305     0.91
hsparse                6       0.100       0.600     0.06
overlap                6       1.331       7.987     0.78
Setup_H0               6      25.725     154.351    15.07
naefs                 12       0.001       0.015     0.00
MolMec                12       0.000       0.000     0.00
kinefsm               12       1.150      13.799     1.35
nlefsm                12       6.085      73.020     7.13
DHSCF_Init             6      11.932      71.591     6.99
DHSCF1                 6       0.433       2.596     0.25
INITMESH               6       0.000       0.000     0.00
DHSCF2                 6      11.499      68.993     6.73
REMESH                 6       2.554      15.326     1.50
REORD                210       0.001       0.109     0.01
PHION                  6       8.011      48.068     4.69
COMM_BSC             138       0.001       0.078     0.01
POISON                66       0.021       1.382     0.13
fft                  132       0.008       1.024     0.10
IterSCF               48      14.804     710.614    69.37
setup_H               54       9.083     490.503    47.88
DHSCF                 60      10.357     621.396    60.66
DHSCF3                60       8.922     535.308    52.26
rhoofd                60       4.609     276.525    26.99
CellXC                60       0.546      32.731     3.20
gridxc@cellXC         60       0.545      32.730     3.19
vmat                  60       3.741     224.432    21.91
compute_dm            48       4.579     219.807    21.46
diagon                48       4.564     219.055    21.38
c-eigval            6040       0.012      71.979     7.03
c-buildHS           6040       0.010      60.630     5.92
cdiag              11332       0.003      34.751     3.39
cdiag1             11332       0.000       2.671     0.26
cdiag2             11332       0.001       7.361     0.72
cdiag3             11332       0.002      23.191     2.26
c-eigvec            5184       0.015      78.367     7.65
cdiag4              5292       0.000       1.151     0.11
c-buildD            5184       0.015      75.511     7.37
MIXER                 42       0.003       0.144     0.01
PostSCF                6      22.573     135.438    13.22
DHSCF4                 6      14.348      86.088     8.40
dfscf                  6      13.477      80.859     7.89
overfsm                6       0.067       0.403     0.04
state_analysis         6       0.000       0.002     0.00
siesta_move            6       0.000       0.002     0.00
Analysis               1      14.137      14.137     1.38
pdos                   1       7.037       7.037     0.69
optical                1       0.000       0.000     0.00

>> End of run:   8-APR-2020  11:11:02
Job completed