* Running in serial mode
>> Start of run:   8-APR-2020  12:37:14

reinit: Reading from standard input
reinit: Dumped input in INPUT_TMP.47228
************************** Dump of input data file ****************************
SystemName      Barium titanate (BaTiO3) cubic structure
#               Don't alter anything in this file.
#               Cubic phase
#               PBE-SOL functional
#               Theoretical lattice constant obtained for the Hamann pseudos
#               (taken from the pseudo-dojo web page)
#               Mesh Cutoff: 600 Ry
#               Monkhorst-Pack grid: 6 x 6 x 6 ; displaced 0.5 0.5 0.5
SystemLabel	BaTiO3
NumberOfSpecies	3
NumberOfAtoms	5
%block ChemicalSpeciesLabel
      1      56     Ba
      2      22     Ti
      3       8     O
%endblock ChemicalSpeciesLabel
%block PS.lmax
   Ba    3
   Ti    3
    O    3
%endblock PS.lmax
PAO.Basis  < BaTiO3basis.fdf
LatticeConstant       4.1895 Ang    # Theoretical lattice constant for the
                                      #    cubic phase
%block LatticeVectors
  1.00  0.00  0.00
  0.00  1.00  0.00
  0.00  0.00  1.00
%endblock LatticeVectors
AtomicCoordinatesFormat	     Fractional
%block AtomicCoordinatesAndAtomicSpecies
  0.00  0.00  0.00       1     137.327      Ba
  0.50  0.50  0.50       2      47.867      Ti
  0.00  0.50  0.50       3      15.9994     O
  0.50  0.00  0.50       3      15.9994     O
  0.50  0.50  0.00       3      15.9994     O
%endblock AtomicCoordinatesAndAtomicSpecies
%block kgrid_Monkhorst_Pack
   6  0  0  0.5
   0  6  0  0.5
   0  0  6  0.5
%endblock kgrid_Monkhorst_Pack
2
%endblock XC.cocktail
MeshCutoff             600 Ry      # Defines the plane wave cutoff for the grid
DM.NumberPulay         3           # It controls the Pulay convergence
                                   #   accelerator.
DM.UseSaveDM           .true.      # Use the Density Matrix from the DM file
                                   #   if found
DM.Tolerance           1.d-4       # Tolerance in maximum difference
                                   # between input and output DM
MaxSCFIterations       100         # Maximum number of SCF Iterations
ElectronicTemperature  0.075 eV    # Electronic Temperature for the smearing
                                   #   of the Fermi-Dirac occupation function
SCF.MixAfterConvergence .false.    # Logical variable to indicate whether mixing
                                   #   is done in the last SCF cycle
                                   #   (after convergence has been achieved)
                                   #   or not.
                                   #   Not mixing after convergence improves
                                   #   the quality of the final Kohn-Sham
                                   #   energy and of the forces when mixing
                                   #   the DM.
#
# Molecular Dynamic or Relaxation variables
#
MD.TypeOfRun            cg          # Type of dynamics:
                                    #   - CG
                                    #   - Verlet
                                    #   - Nose
                                    #   - Parrinello-Rahman
                                    #   - Nose-Parrinello-Rahman
                                    #   - Anneal
                                    #   - FC
MD.VariableCell         .true.      # The lattice is relaxed together with
                                    # the atomic coordinates?
MD.NumCGsteps            0          # Number of CG steps for
                                    #   coordinate optimization
MD.MaxCGDispl           0.3 Bohr    # Maximum atomic displacement
                                    #   in one CG step
MD.MaxForceTol         0.01 eV/Ang  # Tolerance in the maximum
                                    #   atomic force
MD.MaxStressTol        0.0001 eV/Ang**3
                                    # Tolerance in the maximum
                                    #   stress in a MD.VariableCell CG optimi.
MD.UseSaveXV           .false.      # Instructs Siesta to read the
                                    #   atomic positions and velocities stored
                                    #   in file SystemLabel.XV by a
                                    #   previous run.
MD.UseSaveCG           .false.      # Instructs to read the conjugate-gradient
                                    #   hystory information stored in file
                                    #
#
# Plotting the band structure
#
BandLinesScale pi/a
%block BandLines
1   0.0 0.0 0.0 \Gamma              # Start at \Gamma
100 1.0 0.0 0.0 X                   # 100 points from \Gamma to X
100 1.0 1.0 0.0 M                   # 100 points from X to M
100 1.0 1.0 1.0 R                   # 100 points from M to R
173 0.0 0.0 0.0 \Gamma              # 173 points from R to \Gamma
141 0.0 1.0 1.0 M                   # 141 points from \Gamma to M
100 0.0 0.0 1.0 X                   # 100 points from M to X
141 1.0 1.0 1.0 R                   # 141 points from X to R
%endblock BandLines
#
# Plotting the Projected Density Of States
#
%block ProjectedDensityOfStates
  -70.00  20.00  0.150 3000  eV
%endblock ProjectedDensityOfStates
%PDOS.kgrid_Monkhorst_Pack
   120  0  0  0.5
    0 120  0  0.5
    0  0 120  0.5
%end PDOS.kgrid_Monkhorst_Pack
************************** End of input data file *****************************

reinit: -----------------------------------------------------------------------
reinit: System Name: Barium titanate (BaTiO3) cubic structure
reinit: -----------------------------------------------------------------------
reinit: System Label: BaTiO3
reinit: -----------------------------------------------------------------------

xc:
xc:  Cocktail exchange-correlation functional:
xc:
xc: Number     Functional     Authors     Weight(Ex)   Weight(Ec)
xc:

initatom: Reading input for the pseudopotentials and atomic orbitals ----------
Species number:   1 Atomic number:   56 Label: Ba
Species number:   2 Atomic number:   22 Label: Ti
Species number:   3 Atomic number:    8 Label: O

Ground state valence configuration:   6s02

Reading pseudopotential from: Ba.psml

PSML file version: 1.1
GGA--PBEsol XC_GGA_X_PBE_SOL--XC_GGA_C_PBE_SOL ps
 Using ATOM defaults for log grid...
PSML uuid: 14acf8b0-1d66-11e8-4a41-3692dfd56b73
Dumping pseudopotential information in formatted form in Ba.psdump
Ground state valence configuration:   4s02  3d02

[...]

PSML file version: 1.1
GGA--PBEsol XC_GGA_X_PBE_SOL--XC_GGA_C_PBE_SOL ps
 Using ATOM defaults for log grid...
PSML uuid: 4b1d8b90-1d65-11e8-71dd-645aef4ba7d4
Dumping pseudopotential information in formatted form in Ti.psdump
Ground state valence configuration:   2s02  2p04

Reading pseudopotential from: O.psml

PSML file version: 1.1
GGA--PBEsol XC_GGA_X_PBE_SOL--XC_GGA_C_PBE_SOL ps
 Using ATOM defaults for log grid...
PSML uuid: fa630a90-1d64-11e8-7ddc-64dedbfaf3ff
Dumping pseudopotential information in formatted form in O.psdump
Semicore shell(s) with  8 electrons included in the valence for
Ba
Semicore shell(s) with  8 electrons included in the valence for
Ti
relmxkb: Read Max KB Ang. Momentum=    3 for species Ba
relmxkb: Read Max KB Ang. Momentum=    3 for species Ti
relmxkb: Read Max KB Ang. Momentum=    3 for species O
Pseudopotential only contains V_ls up to l=2 -- lmxkb reset.
Pseudopotential only contains V_ls up to l=2 -- lmxkb reset.
Pseudopotential only contains V_ls up to l=2 -- lmxkb reset.

<basis_specs>
Ba                   Z=  56    Mass=  137.33        Charge= 0.17397
Lmxo=2 Lmxkb= 2    BasisType=split      Semic=T
L=0  Nsemic=1  Cnfigmx=6
          n=1  nzeta=1  polorb=0  (5s)
            splnorm:   0.15000
               vcte:    67.169
               rinn:    4.8754
               qcoe:    0.0000
               qyuk:    0.0000
               qwid:   0.10000E-01
                rcs:    5.7042
            lambdas:    1.0000
          n=2  nzeta=2  polorb=0  (6s)
            splnorm:   0.15000
               vcte:    232.89
               rinn:    5.7690
               qcoe:    0.0000
               qyuk:    0.0000
               qwid:   0.10000E-01
                rcs:    6.9035      5.3003
            lambdas:    1.0000      1.0000
L=1  Nsemic=1  Cnfigmx=6
          n=1  nzeta=1  polorb=0  (5p)
            splnorm:   0.15000
               vcte:    49.809
               rinn:    3.5661
               qcoe:    0.0000
               qyuk:    0.0000
               qwid:   0.10000E-01
                rcs:    6.7987
            lambdas:    1.0000
          n=2  nzeta=1  polorb=0  (6p)
            splnorm:   0.15000
               vcte:    91.264
               rinn:    5.2002
               qcoe:    0.0000
               qyuk:    0.0000
               qwid:   0.10000E-01
                rcs:    7.4602
            lambdas:    1.0000
L=2  Nsemic=0  Cnfigmx=5
          n=1  nzeta=1  polorb=0  (5d)
            splnorm:   0.15000
               vcte:    78.061
               rinn:    6.2429
               qcoe:    0.0000
               qyuk:    0.0000
               qwid:   0.10000E-01
                rcs:    6.7443
            lambdas:    1.0000
L=0  Nkbl=2  erefs: 0.17977+309 0.17977+309
L=1  Nkbl=2  erefs: 0.17977+309 0.17977+309
L=2  Nkbl=1  erefs: 0.17977+309
</basis_specs>

atom: Called for Ba                    (Z =  56)

read_vps: Pseudopotential generation method:
read_vps: ONCVPSP-3.Hamann's oncvpsp
Total valence charge:   10.00000

read_vps: Pseudopotential includes a core correction:
read_vps: Pseudo-core for xc-correction

xc_check: Exchange-correlation functional:
xc_check: WARNING: Pseudopotential generated with GGA PBEsol functional

xc_check: Exchange-correlation functional:
xc_check: WARNING: Pseudopotential generated with GGA PBEsol functional
Got Vlocal (oncv-fit) from psml data
Choosing vlocal chloc cutoff:  4.828999
qtot up to nchloc:   10.00031584
atom: Maximum radius forchloc:    4.82900
atom: Maximum radius for r*vlocal+2*Zval:    4.82900
Reading KB projs from Ba psml data
Using scalar-relativistic projectors in PSML file

PSML: Kleinman-Bylander projectors:
   l= 0   rc=  1.987994   Ekb= 13.113365
   l= 0   rc=  1.987994   Ekb=  1.276458
   l= 1   rc=  1.844345   Ekb= 10.697721
   l= 1   rc=  1.844345   Ekb=  1.067455
   l= 2   rc=  1.938909   Ekb=  9.037816
   l= 2   rc=  1.938909   Ekb=  1.868101

PSML: Total number of  Kleinman-Bylander projectors:  18
atom: -------------------------------------------------------------------------

atom: SANKEY-TYPE ORBITALS:
atom: Selected multiple-zeta basis: split

atom: basis set generated (by rescaling the valence charge)
atom: for a cation of charge   0.1740

SPLIT: Orbitals with angular momentum L= 0

SPLIT: Basis orbitals for state 5s

   izeta = 1
                 lambda =    1.000000
                     rc =    5.752535
                 energy =   -2.631512
                kinetic =    1.131803
    potential(screened) =   -3.763316
       potential(ionic) =  -11.502713

[...]

   izeta = 2
                 rmatch =    5.336874
              splitnorm =    1.007496
                 energy =    1.477648
                kinetic =    1.745514
    potential(screened) =   -0.267866
[...]
 n=3   0   1                         # n, l, Nzeta
   5.806
   1.000
 n=4   0   2                         # n, l, Nzeta
   6.917      4.410
   1.000      1.000
 n=3   1   1                         # n, l, Nzeta
   5.953
   1.000
 n=4   1   1                         # n, l, Nzeta
   6.104
   1.000
 n=3   2   2                         # n, l, Nzeta
   6.579      2.420
   1.000      1.000
O                     3  -0.298            # Label, l-shells, ionic net charge
 n=2   0   2                         # n, l, Nzeta
   6.023      2.917
   1.000      1.000
 n=2   1   2                         # n, l, Nzeta
   5.874      3.840
   1.000      1.000
 n=3   2   1                         # n, l, Nzeta
   4.574
   1.000
%endblock PAO.Basis

prinput: ----------------------------------------------------------------------

 CH_OVERLAP: Z1=   9.9941852391139765       ZVAL1=   10.000000000000000
 CH_OVERLAP: Z2=   9.9941852391139765       ZVAL2=   10.000000000000000
 CH_OVERLAP: Z1=   11.995005091130285       ZVAL1=   12.000000000000000
 CH_OVERLAP: Z2=   11.995005091130285       ZVAL2=   12.000000000000000
 CH_OVERLAP: Z1=   11.995005091130285       ZVAL1=   12.000000000000000
 CH_OVERLAP: Z2=   9.9941852391139765       ZVAL2=   10.000000000000000
 CH_OVERLAP: Z1=   6.0106029084246302       ZVAL1=   6.0000000000000000
 CH_OVERLAP: Z2=   6.0106029084246302       ZVAL2=   6.0000000000000000
 CH_OVERLAP: Z1=   6.0106029084246302       ZVAL1=   6.0000000000000000
 CH_OVERLAP: Z2=   11.995005091130285       ZVAL2=   12.000000000000000
 CH_OVERLAP: Z1=   6.0106029084246302       ZVAL1=   6.0000000000000000
 CH_OVERLAP: Z2=   9.9941852391139765       ZVAL2=   10.000000000000000
coor:   Atomic-coordinates input format  =     Fractional

siesta: Atomic coordinates (Bohr) and species
siesta:      0.00000   0.00000   0.00000  1        1
siesta:      3.95851   3.95851   3.95851  2        2
siesta:      0.00000   3.95851   3.95851  3        3
siesta:      3.95851   0.00000   3.95851  3        4
siesta:      3.95851   3.95851   0.00000  3        5

siesta: System type = bulk

initatomlists: Number of atoms, orbitals, and projectors:      5    72    75

siesta: ******************** Simulation parameters ****************************
siesta:
siesta: The following are some of the parameters of the simulation.
siesta: A complete list of the parameters used, including default values,
siesta: can be found in file out.fdf
siesta:
redata: Spin configuration                          = none
redata: Number of spin components                   = 1
redata: Time-Reversal Symmetry                      = T
redata: Spin-spiral                                 = F
redata: Long output                                 =   F
redata: Number of Atomic Species                    =        3
redata: Charge density info will appear in .RHO file
redata: Write Mulliken Pop.                         = NO
redata: Matel table size (NRTAB)                    =     1024
redata: Mesh Cutoff                                 =   600.0000 Ry
redata: Net charge of the system                    =     0.0000 |e|
redata: Min. number of SCF Iter                     =        0
redata: Max. number of SCF Iter                     =      100
redata: SCF convergence failure will abort job
redata: SCF mix quantity                            = Hamiltonian
redata: Mix DM or H after convergence               =   F
redata: Recompute H after scf cycle                 =   F
redata: Mix DM in first SCF step                    =   T
redata: Write Pulay info on disk                    =   F
redata: New DM Mixing Weight                        =     0.2500
redata: New DM Occupancy tolerance                  = 0.000000000001
redata: No kicks to SCF
redata: DM Mixing Weight for Kicks                  =     0.5000
redata: Require Harris convergence for SCF          =   F
redata: Harris energy tolerance for SCF             =     0.000100 eV
redata: Require DM convergence for SCF              =   T
redata: DM tolerance for SCF                        =     0.000100
redata: Require EDM convergence for SCF             =   F
redata: EDM tolerance for SCF                       =     0.001000 eV
redata: Require H convergence for SCF               =   T
redata: Hamiltonian tolerance for SCF               =     0.001000 eV
redata: Require (free) Energy convergence for SCF   =   F
redata: (free) Energy tolerance for SCF             =     0.000100 eV
redata: Using Saved Data (generic)                  =   F
redata: Use continuation files for DM               =   T
redata: Neglect nonoverlap interactions             =   F
redata: Method of Calculation                       = Diagonalization
redata: Electronic Temperature                      =   870.3328 K
redata: Fix the spin of the system                  =   F
redata: Max. number of TDED Iter                    =        1
redata: Number of TDED substeps                     =        3
redata: Dynamics option                             = Single-point calculation
mix.SCF: Pulay mixing                            = Pulay
mix.SCF:    Variant                              = stable
mix.SCF:    History steps                        = 3
mix.SCF:    Linear mixing weight                 =     0.250000
mix.SCF:    Mixing weight                        =     0.250000
mix.SCF:    SVD condition                        = 0.1000E-07
redata: ***********************************************************************

%block SCF.Mixers
  Pulay
%endblock SCF.Mixers

%block SCF.Mixer.Pulay
  # Mixing method
  method pulay
  variant stable

  # Mixing options
  weight 0.2500
  weight.linear 0.2500
  history 3
%endblock SCF.Mixer.Pulay

DM_history_depth set to one: no extrapolation allowed by default for geometry relaxation
Size of DM history Fstack: 1
Total number of electrons:    40.000000
Total ionic charge:    40.000000
 Kpoints in:          108 . Kpoints trimmed:          108

siesta: k-grid: Number of k-points =       108
siesta: k-points from Monkhorst-Pack grid
siesta: k-cutoff (effective) =    12.569 Ang
siesta: k-point supercell and displacements
siesta: k-grid:    6   0   0      0.500
siesta: k-grid:    0   6   0      0.500
siesta: k-grid:    0   0   6      0.500
 Kpoints in:          108 . Kpoints trimmed:          108

siesta: PDOS k-grid: Number of k-points =       108
siesta: PDOS k-points from Monkhorst-Pack grid
siesta: PDOS k-cutoff (effective) =     0.000 Ang
siesta: PDOS k-point supercell and displacements
siesta: k-grid:    6   0   0      0.500
siesta: k-grid:    0   6   0      0.500
siesta: k-grid:    0   0   6      0.500

diag: Algorithm                                     = D&C
diag: Used triangular part                          = Lower
diag: Absolute tolerance                            =  0.100E-15
diag: Orthogonalization factor                      =  0.100E-05
Using LatticeConstant from fdf file for BandLinesScale:    7.917011 Bohr
Beware any cell changes by the end of the run
Using LatticeConstant from fdf file for BandLinesScale:    7.917011 Bohr
Beware any cell changes by the end of the run

superc: Internal auxiliary supercell:     5 x     5 x     5  =     125
superc: Number of atoms, orbitals, and projectors:    625   9000   9375

ts: **************************************************************
ts: Save H and S matrices                           =    F
ts: Save DM and EDM matrices                        =    F
ts: Fix Hartree potential                           =    F
ts: Only save the overlap matrix S                  =    F
ts: **************************************************************

************************ Begin: TS CHECKS AND WARNINGS ************************
************************ End: TS CHECKS AND WARNINGS **************************

                        Single-point calculation

superc: Internal auxiliary supercell:     5 x     5 x     5  =     125
superc: Number of atoms, orbitals, and projectors:    625   9000   9375

outcell: Unit cell vectors (Ang):
        4.189500    0.000000    0.000000
        0.000000    4.189500    0.000000
        0.000000    0.000000    4.189500

outcell: Cell vector modules (Ang)   :    4.189500    4.189500    4.189500
outcell: Cell angles (23,13,12) (deg):     90.0000     90.0000     90.0000
outcell: Cell volume (Ang**3)        :     73.5337
<dSpData1D:S at geom step 0
  <sparsity:sparsity for geom step 0
    nrows_g=72 nrows=72 sparsity=15.9101 nnzs=82478, refcount: 7>
  <dData1D:(new from dSpData1D) n=82478, refcount: 1>
refcount: 1>
new_DM -- step:     1
Initializing Density Matrix...

Attempting to read DM from file... Failed...
DM filled with atomic data:
<dSpData2D:DM initialized from atoms
  <sparsity:sparsity for geom step 0
    nrows_g=72 nrows=72 sparsity=15.9101 nnzs=82478, refcount: 8>
  <dData2D:DM n=82478 m=1, refcount: 1>
refcount: 1>
No. of atoms with KB's overlaping orbs in proc 0. Max # of overlaps:      43     334
New grid distribution:   1
           1       1:   32    1:   32    1:   32

InitMesh: MESH =    64 x    64 x    64 =      262144
InitMesh: (bp) =    32 x    32 x    32 =       32768
InitMesh: Mesh cutoff (required, used) =   600.000   644.967 Ry
ExtMesh (bp) on 0 =   156 x   156 x   156 =     3796416
PhiOnMesh: Number of (b)points on node 0 =                32768
PhiOnMesh: nlist on node 0 =              3619172

stepf: Fermi-Dirac step function

siesta: Program's energy decomposition (eV):
siesta: Ebs     =      -699.042500
siesta: Eions   =      5589.266550
siesta: Ena     =       996.425671
siesta: Ekin    =      1823.082086
siesta: Enl     =      -160.616628
siesta: Eso     =         0.000000
siesta: Eldau   =         0.000000
siesta: DEna    =       -54.758215
siesta: DUscf   =        69.624907
siesta: DUext   =         0.000000
siesta: Enegf   =         0.000000
siesta: Exc     =      -778.122135
siesta: eta*DQ  =         0.000000
siesta: Emadel  =         0.000000
siesta: Emeta   =         0.000000
siesta: Emolmec =         0.000000
siesta: Ekinion =         0.000000
siesta: Eharris =     -3605.731237
siesta: Etot    =     -3693.630865
siesta: FreeEng =     -3693.630865

SCF Convergence by DM+H criterion
max |DM_out - DM_in|         :     0.0000364559
max |H_out - H_in|      (eV) :     0.0001466334
SCF cycle converged after 14 iterations

Using DM_out to compute the final energy and forces
No. of atoms with KB's overlaping orbs in proc 0. Max # of overlaps:      43     334

siesta: E_KS(eV) =            -3733.2845

siesta: E_KS - E_eggbox =     -3733.2845

siesta: Atomic forces (eV/Ang):
   Tot    0.000000    0.000000   -0.000000
   Max    0.000000
   Res    0.000000    sqrt( Sum f_i^2 / 3N )
   Max    0.000000    constrained

Stress-tensor-Voigt (kbar):      194.90      194.90      194.90        0.00        0.00        0.00
(Free)E + p*V (eV/cell)    -3742.2297
Target enthalpy (eV/cell)    -3733.2845

siesta: Stress tensor (static) (eV/Ang**3):
         0.121648    0.000000    0.000000
         0.000000    0.121648    0.000000
         0.000000    0.000000    0.121648

siesta: Pressure (static):       -194.90312075  kBar

siesta: Stress tensor (total) (eV/Ang**3):
         0.121648    0.000000    0.000000
         0.000000    0.121648    0.000000
         0.000000    0.000000    0.121648

siesta: Pressure (total):       -194.90312075  kBar

outcell: Unit cell vectors (Ang):
        4.189500    0.000000    0.000000
        0.000000    4.189500    0.000000
        0.000000    0.000000    4.189500

outcell: Cell vector modules (Ang)   :    4.189500    4.189500    4.189500
outcell: Cell angles (23,13,12) (deg):     90.0000     90.0000     90.0000
outcell: Cell volume (Ang**3)        :     73.5337
Computing bands...

siesta: PDOS info
siesta: E1 -- E2, sigma [eV], nhist:  -70.000 --   20.000    0.150 3000

siesta: Program's energy decomposition (eV):
siesta: Ebs     =      -817.628758
siesta: Eions   =      5589.266550
siesta: Ena     =       996.425671
siesta: Ekin    =      1694.084585
siesta: Enl     =       -88.460528
siesta: Eso     =         0.000000
siesta: Eldau   =         0.000000
siesta: DEna    =        -4.771052
siesta: DUscf   =         7.242388
siesta: DUext   =         0.000000
siesta: Enegf   =         0.000000
siesta: Exc     =      -748.538972
siesta: eta*DQ  =         0.000000
siesta: Emadel  =         0.000000
siesta: Emeta   =         0.000000
siesta: Emolmec =         0.000000
siesta: Ekinion =         0.000000
siesta: Eharris =     -3733.284458
siesta: Etot    =     -3733.284458
siesta: FreeEng =     -3733.284467

siesta: Final energy (eV):
siesta:  Band Struct. =    -817.628758
siesta:       Kinetic =    1694.084585
siesta:       Hartree =     851.727654
siesta:       Eldau   =       0.000000
siesta:       Eso     =       0.000000
siesta:    Ext. field =       0.000000
siesta:       Enegf   =       0.000000
siesta:   Exch.-corr. =    -748.538972
siesta:  Ion-electron =   -3435.597744
siesta:       Ion-ion =   -2094.959981
siesta:       Ekinion =       0.000000
siesta:         Total =   -3733.284458
siesta:         Fermi =      -5.764406

siesta: Stress tensor (static) (eV/Ang**3):
siesta:     0.121648    0.000000    0.000000
siesta:     0.000000    0.121648    0.000000
siesta:     0.000000    0.000000    0.121648

siesta: Cell volume =         73.533728 Ang**3

siesta: Pressure (static):
siesta:                Solid            Molecule  Units
siesta:          -0.00132490         -0.00132490  Ry/Bohr**3
siesta:          -0.12164764         -0.12164764  eV/Ang**3
siesta:        -194.90312075       -194.90312075  kBar
(Free)E+ p_basis*V_orbitals  =       -3729.478639
(Free)Eharris+ p_basis*V_orbitals  =       -3729.478639

Routine            Calls   Time/call    Tot.time        %
siesta                 1     322.467     322.467   100.00
Setup                  1       0.846       0.846     0.26
bands                  3       1.796       5.388     1.67
KSV_init               1       0.000       0.000     0.00
IterGeom               1     311.812     311.812    96.70
state_init             1      14.176      14.176     4.40
hsparse                1       0.058       0.058     0.02
overlap                1      14.077      14.077     4.37
Setup_H0               1      89.936      89.936    27.89
naefs                  2       0.002       0.003     0.00
MolMec                 2       0.000       0.000     0.00
kinefsm                2       7.013      14.026     4.35
nlefsm                 2      32.858      65.717    20.38
DHSCF_Init             1      10.652      10.652     3.30
DHSCF1                 1       0.460       0.460     0.14
INITMESH               1       0.000       0.000     0.00
DHSCF2                 1      10.192      10.192     3.16
REMESH                 1       1.741       1.741     0.54
REORD                 47       0.001       0.041     0.01
PHION                  1       7.598       7.598     2.36
COMM_BSC              35       0.001       0.032     0.01
POISON                17       0.034       0.570     0.18
fft                   34       0.012       0.418     0.13
IterSCF               14      13.165     184.313    57.16
setup_H               15       8.117     121.749    37.76
DHSCF                 16       9.039     144.625    44.85
DHSCF3                16       8.137     130.185    40.37
rhoofd                16       3.908      62.525    19.39
CellXC                16       0.945      15.113     4.69
gridxc@cellXC         16       0.945      15.113     4.69
vmat                  16       3.241      51.857    16.08
compute_dm            14       4.464      62.490    19.38
diagon                14       4.460      62.433    19.36
c-eigval            2368       0.010      23.738     7.36
c-buildHS           2368       0.008      19.497     6.05
cdiag               3988       0.003      12.551     3.89
cdiag1              3988       0.000       0.973     0.30
cdiag2              3988       0.001       2.676     0.83
cdiag3              3988       0.002       8.324     2.58
c-eigvec            1512       0.015      23.148     7.18
cdiag4              1620       0.000       0.448     0.14
c-buildD            1512       0.014      20.811     6.45
MIXER                 13       0.003       0.034     0.01
PostSCF                1      23.386      23.386     7.25
DHSCF4                 1      14.440      14.440     4.48
dfscf                  1      13.511      13.511     4.19
overfsm                1       0.035       0.035     0.01
state_analysis         1       0.000       0.000     0.00
siesta_move            1       0.000       0.000     0.00
Analysis               1       9.804       9.804     3.04
pdos                   1       4.407       4.407     1.37
optical                1       0.000       0.000     0.00

>> End of run:   8-APR-2020  12:43:58
Job completed