* Running in serial mode
>> Start of run:   8-APR-2020  10:51:46

reinit: Reading from standard input
reinit: Dumped input in INPUT_TMP.18816
************************** Dump of input data file ****************************
SystemName      Calcium titanate (CaTiO3) cubic structure
#               Cubic phase
#               PBE-SOL functional
#               Theoretical lattice constant obtained for the Hamann pseudos
#               (taken from the pseudo-dojo web page)
#               Mesh Cutoff: 600 Ry
#               Monkhorst-Pack grid: 6 x 6 x 6 ; displaced 0.5 0.5 0.5
SystemLabel	CaTiO3
NumberOfSpecies	3
NumberOfAtoms	5
%block ChemicalSpeciesLabel
      1      20     Ca
      2      22     Ti
      3       8     O
%endblock ChemicalSpeciesLabel
%block PS.lmax
   Ca    3
   Ti    3
    O    3
%endblock PS.lmax
PAO.Basis  < CaTiO3basis.fdf
LatticeConstant       4.2358833 Ang
                                      #    cubic phase
%block LatticeVectors
  1.00  0.00  0.00
  0.00  1.00  0.00
  0.00  0.00  1.00
%endblock LatticeVectors
AtomicCoordinatesFormat	     Fractional
%block AtomicCoordinatesAndAtomicSpecies
  0.00  0.00  0.00       1      40.078      Ca
  0.50  0.50  0.50       2      47.867      Ti
  0.00  0.50  0.50       3      15.9994     O
  0.50  0.00  0.50       3      15.9994     O
  0.50  0.50  0.00       3      15.9994     O
%endblock AtomicCoordinatesAndAtomicSpecies
WriteCoorStep           .true.        #  Write the atomic coordinates to
                                      #     standard output at every
                                      #     MD time step or relaxation step.
%block kgrid_Monkhorst_Pack
   6  0  0  0.5
   0  6  0  0.5
   0  0  6  0.5
%endblock kgrid_Monkhorst_Pack
#
# DFT, Grid, SCF
#
2
%endblock XC.cocktail
MeshCutoff             600 Ry      # Defines the plane wave cutoff for the grid
DM.NumberPulay         3           # It controls the Pulay convergence
                                   #   accelerator.
DM.UseSaveDM           .true.      # Use the Density Matrix from the DM file
                                   #   if found
DM.Tolerance           1.d-4       # Tolerance in maximum difference
                                   # between input and output DM
MaxSCFIterations       100         # Maximum number of SCF Iterations
ElectronicTemperature  0.075 eV    # Electronic Temperature for the smearing
                                   #   of the Fermi-Dirac occupation function
SCF.MixAfterConvergence .false.    # Logical variable to indicate whether mixing
                                   #   is done in the last SCF cycle
                                   #   (after convergence has been achieved)
                                   #   or not.
                                   #   Not mixing after convergence improves
                                   #   the quality of the final Kohn-Sham
                                   #   energy and of the forces when mixing
                                   #   the DM.
#
# Molecular Dynamic or Relaxation variables
#
MD.TypeOfRun            cg          # Type of dynamics:
                                    #   - CG
                                    #   - Verlet
                                    #   - Nose
                                    #   - Parrinello-Rahman
                                    #   - Nose-Parrinello-Rahman
                                    #   - Anneal
                                    #   - FC
MD.VariableCell         .true.      # The lattice is relaxed together with
                                    # the atomic coordinates?
MD.NumCGsteps            20          # Number of CG steps for
                                    #   coordinate optimization
MD.MaxCGDispl           0.3 Bohr    # Maximum atomic displacement
                                    #   in one CG step
MD.MaxForceTol         0.01 eV/Ang  # Tolerance in the maximum
                                    #   atomic force
MD.MaxStressTol        0.0001 eV/Ang**3
                                    # Tolerance in the maximum
                                    #   stress in a MD.VariableCell CG optimi.
MD.UseSaveXV           .false.      # Instructs Siesta to read the
                                    #   atomic positions and velocities stored
                                    #   in file SystemLabel.XV by a
                                    #   previous run.
MD.UseSaveCG           .false.      # Instructs to read the conjugate-gradient
                                    #   hystory information stored in file
                                    #   SystemLabel.CG by a previous run.
#
# Plotting the band structure
#
BandLinesScale pi/a
%block BandLines
1   0.0 0.0 0.0 \Gamma              # Start at \Gamma
100 1.0 0.0 0.0 X                   # 100 points from \Gamma to X
100 1.0 1.0 0.0 M                   # 100 points from X to M
100 1.0 1.0 1.0 R                   # 100 points from M to R
173 0.0 0.0 0.0 \Gamma              # 173 points from R to \Gamma
141 0.0 1.0 1.0 M                   # 141 points from \Gamma to M
100 0.0 0.0 1.0 X                   # 100 points from M to X
141 1.0 1.0 1.0 R                   # 141 points from X to R
%endblock BandLines
#
# Plotting the Projected Density Of States
#
%block ProjectedDensityOfStates
  -70.00  20.00  0.150 3000  eV
%endblock ProjectedDensityOfStates
%PDOS.kgrid_Monkhorst_Pack
   120  0  0  0.5
    0 120  0  0.5
    0  0 120  0.5
%end PDOS.kgrid_Monkhorst_Pack
************************** End of input data file *****************************

reinit: -----------------------------------------------------------------------
reinit: System Name: Calcium titanate (CaTiO3) cubic structure
reinit: -----------------------------------------------------------------------
reinit: System Label: CaTiO3
reinit: -----------------------------------------------------------------------

xc:
xc:  Cocktail exchange-correlation functional:
xc:
xc: Number     Functional     Authors     Weight(Ex)   Weight(Ec)
xc:

initatom: Reading input for the pseudopotentials and atomic orbitals ----------
Species number:   1 Atomic number:   20 Label: Ca
Species number:   2 Atomic number:   22 Label: Ti
Species number:   3 Atomic number:    8 Label: O

Ground state valence configuration:   4s02

Reading pseudopotential from: Ca.psml

PSML file version: 1.1
GGA--PBEsol XC_GGA_X_PBE_SOL--XC_GGA_C_PBE_SOL ps
 Using ATOM defaults for log grid...
PSML uuid: 3fe16a80-1d65-11e8-75e6-335877f7152c
Dumping pseudopotential information in formatted form in Ca.psdump
Ground state valence configuration:   4s02  3d02

[...]

PSML file version: 1.1
GGA--PBEsol XC_GGA_X_PBE_SOL--XC_GGA_C_PBE_SOL ps
 Using ATOM defaults for log grid...
PSML uuid: 4b1d8b90-1d65-11e8-71dd-645aef4ba7d4
Dumping pseudopotential information in formatted form in Ti.psdump
Ground state valence configuration:   2s02  2p04

Reading pseudopotential from: O.psml

PSML file version: 1.1
GGA--PBEsol XC_GGA_X_PBE_SOL--XC_GGA_C_PBE_SOL ps
 Using ATOM defaults for log grid...
PSML uuid: fa630a90-1d64-11e8-7ddc-64dedbfaf3ff
Dumping pseudopotential information in formatted form in O.psdump
Semicore shell(s) with  8 electrons included in the valence for
Ca
Semicore shell(s) with  8 electrons included in the valence for
Ti
relmxkb: Read Max KB Ang. Momentum=    3 for species Ca
relmxkb: Read Max KB Ang. Momentum=    3 for species Ti
relmxkb: Read Max KB Ang. Momentum=    3 for species O
Pseudopotential only contains V_ls up to l=2 -- lmxkb reset.
Pseudopotential only contains V_ls up to l=2 -- lmxkb reset.
Pseudopotential only contains V_ls up to l=2 -- lmxkb reset.

<basis_specs>
Ca                   Z=  20    Mass=  40.080        Charge=-0.17090E-01
Lmxo=2 Lmxkb= 2    BasisType=split      Semic=T
L=0  Nsemic=1  Cnfigmx=4
          n=1  nzeta=1  polorb=0  (3s)
            splnorm:   0.15000
               vcte:    62.189
               rinn:    4.8192
               qcoe:    0.0000
               qyuk:    0.0000
               qwid:   0.10000E-01
                rcs:    5.5305
            lambdas:    1.0000
          n=2  nzeta=2  polorb=0  (4s)
            splnorm:   0.15000
               vcte:    181.85
               rinn:    5.4983
               qcoe:    0.0000
               qyuk:    0.0000
               qwid:   0.10000E-01
                rcs:    6.6166      5.1838
            lambdas:    1.0000      1.0000
L=1  Nsemic=1  Cnfigmx=4
          n=1  nzeta=1  polorb=0  (3p)
            splnorm:   0.15000
               vcte:    43.485
               rinn:    4.2885
               qcoe:    0.0000
               qyuk:    0.0000
               qwid:   0.10000E-01
                rcs:    6.9894
            lambdas:    1.0000
          n=2  nzeta=1  polorb=0  (4p)
            splnorm:   0.15000
               vcte:    136.69
               rinn:    4.9908
               qcoe:    0.0000
               qyuk:    0.0000
               qwid:   0.10000E-01
                rcs:    7.4225
            lambdas:    1.0000
L=2  Nsemic=0  Cnfigmx=3
          n=1  nzeta=1  polorb=0  (3d)
            splnorm:   0.15000
               vcte:    82.574
               rinn:    5.7791
               qcoe:    0.0000
               qyuk:    0.0000
               qwid:   0.10000E-01
                rcs:    6.4171
            lambdas:    1.0000
L=0  Nkbl=2  erefs: 0.17977+309 0.17977+309
L=1  Nkbl=2  erefs: 0.17977+309 0.17977+309
L=2  Nkbl=1  erefs: 0.17977+309
</basis_specs>

atom: Called for Ca                    (Z =  20)

read_vps: Pseudopotential generation method:
read_vps: ONCVPSP-3.Hamann's oncvpsp
Total valence charge:   10.00000

read_vps: Pseudopotential includes a core correction:
read_vps: Pseudo-core for xc-correction

xc_check: Exchange-correlation functional:
xc_check: WARNING: Pseudopotential generated with GGA PBEsol functional

xc_check: Exchange-correlation functional:
xc_check: WARNING: Pseudopotential generated with GGA PBEsol functional
Got Vlocal (oncv-fit) from psml data
Choosing vlocal chloc cutoff:  2.905847
qtot up to nchloc:   10.00003822
atom: Maximum radius forchloc:    2.90585
atom: Maximum radius for r*vlocal+2*Zval:    2.90585
Reading KB projs from Ca psml data
Using scalar-relativistic projectors in PSML file

PSML: Kleinman-Bylander projectors:
   l= 0   rc=  1.479470   Ekb= 20.109694
   l= 0   rc=  1.479470   Ekb=  1.947554
   l= 1   rc=  1.479470   Ekb=  5.997917
   l= 1   rc=  1.479470   Ekb=  0.916204
   l= 2   rc=  1.876112   Ekb= -6.894596
   l= 2   rc=  1.876112   Ekb= -2.183301

PSML: Total number of  Kleinman-Bylander projectors:  18
atom: -------------------------------------------------------------------------

atom: SANKEY-TYPE ORBITALS:
atom: Selected multiple-zeta basis: split

atom: basis set generated (by rescaling the valence charge)
atom: for an anion of charge  -0.0171

SPLIT: Orbitals with angular momentum L= 0

SPLIT: Basis orbitals for state 3s

   izeta = 1
                 lambda =    1.000000
                     rc =    5.497235
                 energy =   -3.451482
                kinetic =    1.771210
    potential(screened) =   -5.222692
       potential(ionic) =  -16.719981

[...]

   izeta = 2
[...]

siesta: Program's energy decomposition (eV):
siesta: Ebs     =      -773.202198
siesta: Eions   =      6014.726872
siesta: Ena     =      1006.143573
siesta: Ekin    =      1997.117059
siesta: Enl     =      -175.601628
siesta: Eso     =         0.000000
siesta: Eldau   =         0.000000
siesta: DEna    =       -70.600800
siesta: DUscf   =        74.554464
siesta: DUext   =         0.000000
siesta: Enegf   =         0.000000
siesta: Exc     =      -793.743344
siesta: eta*DQ  =         0.000000
siesta: Emadel  =         0.000000
siesta: Emeta   =         0.000000
siesta: Emolmec =         0.000000
siesta: Ekinion =         0.000000
siesta: Eharris =     -3889.207977
siesta: Etot    =     -3976.857546
siesta: FreeEng =     -3976.857546

SCF Convergence by DM+H criterion
max |DM_out - DM_in|         :     0.0000232307
max |H_out - H_in|      (eV) :     0.0005615517
SCF cycle converged after 11 iterations

Using DM_out to compute the final energy and forces
No. of atoms with KB's overlaping orbs in proc 0. Max # of overlaps:      40     334

siesta: E_KS(eV) =            -4018.8013

siesta: E_KS - E_eggbox =     -4018.8013

siesta: Atomic forces (eV/Ang):
   Tot   -0.000000   -0.000000   -0.000000
   Max    0.000000
   Res    0.000000    sqrt( Sum f_i^2 / 3N )
   Max    0.000000    constrained

Stress-tensor-Voigt (kbar):      298.89      298.89      298.89       -0.00        0.00        0.00
(Free)E + p*V (eV/cell)    -4032.9798
Target enthalpy (eV/cell)    -4018.8013

siesta: Stress tensor (static) (eV/Ang**3):
         0.186551   -0.000000    0.000000
        -0.000000    0.186551    0.000000
         0.000000    0.000000    0.186551

siesta: Pressure (static):       -298.89144134  kBar

siesta: Stress tensor (total) (eV/Ang**3):
         0.186551   -0.000000    0.000000
        -0.000000    0.186551    0.000000
         0.000000    0.000000    0.186551

siesta: Pressure (total):       -298.89144134  kBar

cgvc: No target stress found, assuming hydrostatic MD.TargetPressure.

cgvc: Target stress (kBar)
cgvc:        -0.000       0.000       0.000
cgvc:         0.000      -0.000       0.000
cgvc:         0.000       0.000      -0.000

[...]

outcoor: Atomic coordinates (fractional):
   -0.00000000    0.00000000   -0.00000000   1       1  Ca
    0.50000000    0.50000000    0.50000000   2       2  Ti
    0.00000000    0.50000000    0.50000000   3       3  O
    0.50000000    0.00000000    0.50000000   3       4  O
    0.50000000    0.50000000    0.00000000   3       5  O
 Kpoints in:          108 . Kpoints trimmed:          108

siesta: k-grid: Number of k-points =       108
siesta: k-points from Monkhorst-Pack grid
siesta: k-cutoff (effective) =    12.475 Ang
siesta: k-point supercell and displacements
siesta: k-grid:    6   0   0      0.500
siesta: k-grid:    0   6   0      0.500
siesta: k-grid:    0   0   6      0.500

[...]

outcell: Cell vector modules (Ang)   :    4.158234    4.158234    4.158234
outcell: Cell angles (23,13,12) (deg):     90.0000     90.0000     90.0000
outcell: Cell volume (Ang**3)        :     71.8997
<dSpData1D:S at geom step 1
  <sparsity:sparsity for geom step 1
    nrows_g=72 nrows=72 sparsity=16.2747 nnzs=84368, refcount: 7>
  <dData1D:(new from dSpData1D) n=84368, refcount: 1>
refcount: 1>
new_DM -- step:     2
Re-using DM from previous geometries...
Number of DMs in history: 1
 DM extrapolation coefficients:
1   1.00000
New DM after history re-use:
<dSpData2D:SpM extrapolated using coords
  <sparsity:sparsity for geom step 1
    nrows_g=72 nrows=72 sparsity=16.2747 nnzs=84368, refcount: 8>
  <dData2D:(temp array for extrapolation) n=84368 m=1, refcount: 1>
refcount: 1>
Note: For starting DM, Qtot, Tr[D*S] =         40.00000000         40.12190258
No. of atoms with KB's overlaping orbs in proc 0. Max # of overlaps:      43     334
New grid distribution:   1
           1       1:   32    1:   32    1:   32

[...]

        iscf     Eharris(eV)        E_KS(eV)     FreeEng(eV)     dDmax    Ef(eV) dHmax(eV)
   scf:    1    -4020.537864    -4019.518563    -4019.518575  0.083650 -5.454649  0.601857
   scf:    2    -4019.458011    -4019.508961    -4019.508966  0.105093 -5.140748  0.926549
   scf:    3    -4019.540982    -4019.533063    -4019.533072  0.057213 -5.323446  0.130867
   scf:    4    -4019.533540    -4019.533344    -4019.533353  0.004597 -5.315423  0.076115
   scf:    5    -4019.533484    -4019.533432    -4019.533441  0.002105 -5.316404  0.023058
   scf:    6    -4019.533462    -4019.533451    -4019.533460  0.001714 -5.313809  0.000894
   scf:    7    -4019.533452    -4019.533452    -4019.533460  0.000034 -5.313835  0.000645

[...]

outcell: Cell vector modules (Ang)   :    3.899504    3.899504    3.899504
outcell: Cell angles (23,13,12) (deg):     90.0000     90.0000     90.0000
outcell: Cell volume (Ang**3)        :     59.2964
<dSpData1D:S at geom step 3
  <sparsity:sparsity for geom step 3
    nrows_g=72 nrows=72 sparsity=17.4286 nnzs=90350, refcount: 7>
  <dData1D:(new from dSpData1D) n=90350, refcount: 1>
refcount: 1>
new_DM -- step:     4
Re-using DM from previous geometries...
Number of DMs in history: 1
 DM extrapolation coefficients:
1   1.00000
New DM after history re-use:
<dSpData2D:SpM extrapolated using coords
  <sparsity:sparsity for geom step 3
    nrows_g=72 nrows=72 sparsity=17.4286 nnzs=90350, refcount: 8>
  <dData2D:(temp array for extrapolation) n=90350 m=1, refcount: 1>
refcount: 1>
Note: For starting DM, Qtot, Tr[D*S] =         40.00000000         40.11944174
No. of atoms with KB's overlaping orbs in proc 0. Max # of overlaps:      52     340
New grid distribution:   1
           1       1:   30    1:   30    1:   30

[...]

outcell: Cell vector modules (Ang)   :    3.765012    3.765012    3.765012
outcell: Cell angles (23,13,12) (deg):     90.0000     90.0000     90.0000
outcell: Cell volume (Ang**3)        :     53.3702
<dSpData1D:S at geom step 4
  <sparsity:sparsity for geom step 4
    nrows_g=72 nrows=72 sparsity=19.3013 nnzs=100058, refcount: 7>
  <dData1D:(new from dSpData1D) n=100058, refcount: 1>
refcount: 1>
new_DM -- step:     5
Re-using DM from previous geometries...
Number of DMs in history: 1
 DM extrapolation coefficients:
1   1.00000
New DM after history re-use:
<dSpData2D:SpM extrapolated using coords
  <sparsity:sparsity for geom step 4
    nrows_g=72 nrows=72 sparsity=19.3013 nnzs=100058, refcount: 8>
  <dData2D:(temp array for extrapolation) n=100058 m=1, refcount: 1>
refcount: 1>
No. of atoms with KB's overlaping orbs in proc 0. Max # of overlaps:      64     340
New grid distribution:   1
           1       1:   30    1:   30    1:   30

[...]

cgvc: Finished line minimization    1.  Mean atomic displacement =    0.2324

[...]

cgvc: Finished line minimization    2.  Mean atomic displacement =    0.0087

[...]

                        Begin CG opt. move =      9

outcoor: Atomic coordinates (fractional):
   -0.00000000    0.00000000    0.00000000   1       1  Ca
    0.50000000    0.50000000    0.50000000   2       2  Ti
   -0.00000000    0.50000000    0.50000000   3       3  O
    0.50000000   -0.00000000    0.50000000   3       4  O
    0.50000000    0.50000000    0.00000001   3       5  O
 Kpoints in:          108 . Kpoints trimmed:          108

siesta: k-grid: Number of k-points =       108
siesta: k-points from Monkhorst-Pack grid
siesta: k-cutoff (effective) =    11.552 Ang
siesta: k-point supercell and displacements
siesta: k-grid:    6   0   0      0.500
siesta: k-grid:    0   6   0      0.500
siesta: k-grid:    0   0   6      0.500

superc: Internal auxiliary supercell:     7 x     7 x     7  =     343
superc: Number of atoms, orbitals, and projectors:   1715  24696  25725

[...]

outcell: Cell vector modules (Ang)   :    3.850649    3.850649    3.850649
outcell: Cell angles (23,13,12) (deg):     90.0000     90.0000     90.0000
outcell: Cell volume (Ang**3)        :     57.0955
<dSpData1D:S at geom step 9
  <sparsity:sparsity for geom step 9
    nrows_g=72 nrows=72 sparsity=17.5779 nnzs=91124, refcount: 7>
  <dData1D:(new from dSpData1D) n=91124, refcount: 1>
refcount: 1>
new_DM -- step:    10
Re-using DM from previous geometries...
Number of DMs in history: 1
 DM extrapolation coefficients:
1   1.00000
New DM after history re-use:
<dSpData2D:SpM extrapolated using coords
  <sparsity:sparsity for geom step 9
    nrows_g=72 nrows=72 sparsity=17.5779 nnzs=91124, refcount: 8>
  <dData2D:(temp array for extrapolation) n=91124 m=1, refcount: 1>
refcount: 1>
No. of atoms with KB's overlaping orbs in proc 0. Max # of overlaps:      52     340
New grid distribution:   1
           1       1:   30    1:   30    1:   30

InitMesh: MESH =    60 x    60 x    60 =      216000
InitMesh: (bp) =    30 x    30 x    30 =       27000
InitMesh: Mesh cutoff (required, used) =   600.000   671.021 Ry
ExtMesh (bp) on 0 =   154 x   154 x   154 =     3652264
PhiOnMesh: Number of (b)points on node 0 =                27000
PhiOnMesh: nlist on node 0 =              3580037

        iscf     Eharris(eV)        E_KS(eV)     FreeEng(eV)     dDmax    Ef(eV) dHmax(eV)
   scf:    1    -4021.098285    -4021.068691    -4021.068691  0.006571 -5.516851  0.028251
   scf:    2    -4021.068067    -4021.068542    -4021.068543  0.007209 -5.535672  0.047556
   scf:    3    -4021.068818    -4021.068761    -4021.068761  0.004429 -5.525207  0.004641
   scf:    4    -4021.068762    -4021.068761    -4021.068762  0.000274 -5.525808  0.003246
   scf:    5    -4021.068762    -4021.068762    -4021.068762  0.000147 -5.526005  0.000623
   scf:    6    -4021.068762    -4021.068762    -4021.068762  0.000021 -5.526015  0.000048

SCF Convergence by DM+H criterion
max |DM_out - DM_in|         :     0.0000211873
max |H_out - H_in|      (eV) :     0.0000475599
SCF cycle converged after 6 iterations

Using DM_out to compute the final energy and forces
No. of atoms with KB's overlaping orbs in proc 0. Max # of overlaps:      52     340

siesta: E_KS(eV) =            -4021.0688

siesta: Atomic forces (eV/Ang):
   Tot   -0.000000    0.000000    0.000000
   Max    0.000000
   Res    0.000000    sqrt( Sum f_i^2 / 3N )
   Max    0.000000    constrained

Stress-tensor-Voigt (kbar):        0.03        0.03        0.03        0.00       -0.00       -0.00
(Free)E + p*V (eV/cell)    -4021.0698
Target enthalpy (eV/cell)    -4021.0688

siesta: Stress tensor (static) (eV/Ang**3):
         0.000018    0.000000   -0.000000
         0.000000    0.000018    0.000000
        -0.000000   -0.000000    0.000018

siesta: Pressure (static):         -0.02869783  kBar

siesta: Stress tensor (total) (eV/Ang**3):
         0.000018    0.000000   -0.000000
         0.000000    0.000018    0.000000
        -0.000000   -0.000000    0.000018

siesta: Pressure (total):         -0.02869783  kBar

outcoor: Relaxed atomic coordinates (fractional):
   -0.00000000    0.00000000    0.00000000   1       1  Ca
    0.50000000    0.50000000    0.50000000   2       2  Ti
   -0.00000000    0.50000000    0.50000000   3       3  O
    0.50000000   -0.00000000    0.50000000   3       4  O
    0.50000000    0.50000000    0.00000001   3       5  O

outcell: Unit cell vectors (Ang):
        3.850649    0.000000   -0.000000
        0.000000    3.850649    0.000000
       -0.000000    0.000000    3.850649

outcell: Cell vector modules (Ang)   :    3.850649    3.850649    3.850649
outcell: Cell angles (23,13,12) (deg):     90.0000     90.0000     90.0000
outcell: Cell volume (Ang**3)        :     57.0955
Computing bands...

siesta: PDOS info
siesta: E1 -- E2, sigma [eV], nhist:  -70.000 --   20.000    0.150 3000

siesta: Program's energy decomposition (eV):
siesta: Ebs     =      -914.884628
siesta: Eions   =      6014.726872
siesta: Ena     =       995.241651
siesta: Ekin    =      1902.046875
siesta: Enl     =      -113.805634
siesta: Eso     =         0.000000
siesta: Eldau   =         0.000000
siesta: DEna    =       -24.985530
siesta: DUscf   =         7.459896
siesta: DUext   =         0.000000
siesta: Enegf   =         0.000000
siesta: Exc     =      -772.299148
siesta: eta*DQ  =         0.000000
siesta: Emadel  =         0.000000
siesta: Emeta   =         0.000000
siesta: Emolmec =         0.000000
siesta: Ekinion =         0.000000
siesta: Eharris =     -4021.068762
siesta: Etot    =     -4021.068762
siesta: FreeEng =     -4021.068762

siesta: Final energy (eV):
siesta:  Band Struct. =    -914.884628
siesta:       Kinetic =    1902.046875
siesta:       Hartree =     875.854433
siesta:       Eldau   =       0.000000
siesta:       Eso     =       0.000000
siesta:    Ext. field =       0.000000
siesta:       Enegf   =       0.000000
siesta:   Exch.-corr. =    -772.299148
siesta:  Ion-electron =   -3733.755936
siesta:       Ion-ion =   -2292.914985
siesta:       Ekinion =       0.000000
siesta:         Total =   -4021.068762
siesta:         Fermi =      -5.526015

siesta: Stress tensor (static) (eV/Ang**3):
siesta:     0.000018    0.000000   -0.000000
siesta:     0.000000    0.000018    0.000000
siesta:    -0.000000   -0.000000    0.000018

siesta: Constrained stress tensor (static) (eV/Ang**3):
siesta:     0.000018    0.000000   -0.000000
siesta:     0.000000    0.000018    0.000000
siesta:    -0.000000    0.000000    0.000018

siesta: Cell volume =         57.095476 Ang**3

siesta: Pressure (static):
siesta:                Solid            Molecule  Units
siesta:          -0.00000020         -0.00000020  Ry/Bohr**3
siesta:          -0.00001791         -0.00001792  eV/Ang**3
siesta:          -0.02869783         -0.02870588  kBar
(Free)E+ p_basis*V_orbitals  =       -4017.547499
(Free)Eharris+ p_basis*V_orbitals  =       -4017.547499

Routine            Calls   Time/call    Tot.time        %
siesta                 1    1232.459    1232.459   100.00
Setup                  1       0.866       0.866     0.07
bands                  3       1.122       3.367     0.27
KSV_init               1       0.000       0.000     0.00
IterGeom              10     122.493    1224.934    99.39
state_init            10       1.645      16.445     1.33
hsparse               10       0.075       0.751     0.06
overlap               10       1.457      14.572     1.18
Setup_H0              10      19.133     191.332    15.52
naefs                 20       0.001       0.023     0.00
MolMec                20       0.000       0.000     0.00
kinefsm               20       0.766      15.321     1.24
nlefsm                20       3.703      74.059     6.01
DHSCF_Init            10      10.707     107.068     8.69
DHSCF1                10       0.438       4.385     0.36
INITMESH              10       0.000       0.000     0.00
DHSCF2                10      10.268     102.680     8.33
REMESH                10       2.209      22.094     1.79
REORD                334       0.001       0.221     0.02
PHION                 10       7.195      71.949     5.84
COMM_BSC             214       0.001       0.151     0.01
POISON               102       0.025       2.532     0.21
fft                  204       0.009       1.836     0.15
IterSCF               72      11.406     821.234    66.63
setup_H               82       7.028     576.335    46.76
DHSCF                 92       8.331     766.456    62.19
DHSCF3                92       7.016     645.495    52.37
rhoofd                92       3.474     319.569    25.93
CellXC                92       0.685      63.020     5.11
gridxc@cellXC         92       0.685      63.019     5.11
vmat                  92       2.825     259.896    21.09
compute_dm            72       3.396     244.548    19.84
diagon                72       3.382     243.487    19.76
c-eigval            8632       0.009      73.708     5.98
c-buildHS           8632       0.007      59.428     4.82
cdiag              16516       0.003      47.687     3.87
cdiag1             16516       0.000       3.528     0.29
cdiag2             16516       0.001       9.745     0.79
cdiag3             16516       0.002      32.283     2.62
c-eigvec            7776       0.012      90.870     7.37
cdiag4              7884       0.000       1.613     0.13
c-buildD            7776       0.011      81.887     6.64
MIXER                 62       0.002       0.153     0.01
PostSCF               10      19.591     195.909    15.90
DHSCF4                10      12.096     120.960     9.81
dfscf                 10      11.245     112.455     9.12
overfsm               10       0.057       0.569     0.05
state_analysis        10       0.000       0.005     0.00
siesta_move           10       0.000       0.004     0.00
Analysis               1       6.652       6.652     0.54
pdos                   1       3.277       3.277     0.27
optical                1       0.000       0.000     0.00

>> End of run:   8-APR-2020  11:14:49
Job completed