* Running in serial mode
>> Start of run:   8-APR-2020  10:51:40

reinit: Reading from standard input
reinit: Dumped input in INPUT_TMP.12974
************************** Dump of input data file ****************************
SystemName      Calcium titanate (CaTiO3) cubic structure
#               Cubic phase
#               PBE-SOL functional
#               Theoretical lattice constant obtained for the Hamann pseudos
#               (taken from the pseudo-dojo web page)
#               Mesh Cutoff: 600 Ry
#               Monkhorst-Pack grid: 6 x 6 x 6 ; displaced 0.5 0.5 0.5
SystemLabel	CaTiO3
NumberOfSpecies	3
NumberOfAtoms	5
%block ChemicalSpeciesLabel
      1      20     Ca
      2      22     Ti
      3       8     O
%endblock ChemicalSpeciesLabel
%block PS.lmax
   Ca    3
   Ti    3
    O    3
%endblock PS.lmax
PAO.Basis  < CaTiO3basis.fdf
LatticeConstant       3.850803 Ang
                                      #    cubic phase
%block LatticeVectors
  1.00  0.00  0.00
  0.00  1.00  0.00
  0.00  0.00  1.00
%endblock LatticeVectors
AtomicCoordinatesFormat	     Fractional
%block AtomicCoordinatesAndAtomicSpecies
  0.00  0.00  0.00       1      40.078      Ca
  0.50  0.50  0.50       2      47.867      Ti
  0.00  0.50  0.50       3      15.9994     O
  0.50  0.00  0.50       3      15.9994     O
  0.50  0.50  0.00       3      15.9994     O
%endblock AtomicCoordinatesAndAtomicSpecies
WriteCoorStep           .true.        #  Write the atomic coordinates to
                                      #     standard output at every
                                      #     MD time step or relaxation step.
%block kgrid_Monkhorst_Pack
   6  0  0  0.5
   0  6  0  0.5
   0  0  6  0.5
%endblock kgrid_Monkhorst_Pack
#
# DFT, Grid, SCF
#
2
%endblock XC.cocktail
MeshCutoff             600 Ry      # Defines the plane wave cutoff for the grid
DM.NumberPulay         3           # It controls the Pulay convergence
                                   #   accelerator.
DM.UseSaveDM           .true.      # Use the Density Matrix from the DM file
                                   #   if found
DM.Tolerance           1.d-4       # Tolerance in maximum difference
                                   # between input and output DM
MaxSCFIterations       100         # Maximum number of SCF Iterations
ElectronicTemperature  0.075 eV    # Electronic Temperature for the smearing
                                   #   of the Fermi-Dirac occupation function
SCF.MixAfterConvergence .false.    # Logical variable to indicate whether mixing
                                   #   is done in the last SCF cycle
                                   #   (after convergence has been achieved)
                                   #   or not.
                                   #   Not mixing after convergence improves
                                   #   the quality of the final Kohn-Sham
                                   #   energy and of the forces when mixing
                                   #   the DM.
#
# Molecular Dynamic or Relaxation variables
#
MD.TypeOfRun            cg          # Type of dynamics:
                                    #   - CG
                                    #   - Verlet
                                    #   - Nose
                                    #   - Parrinello-Rahman
                                    #   - Nose-Parrinello-Rahman
                                    #   - Anneal
                                    #   - FC
MD.VariableCell         .true.      # The lattice is relaxed together with
                                    # the atomic coordinates?
MD.NumCGsteps            20          # Number of CG steps for
                                    #   coordinate optimization
MD.MaxCGDispl           0.3 Bohr    # Maximum atomic displacement
                                    #   in one CG step
MD.MaxForceTol         0.01 eV/Ang  # Tolerance in the maximum
                                    #   atomic force
MD.MaxStressTol        0.0001 eV/Ang**3
                                    # Tolerance in the maximum
                                    #   stress in a MD.VariableCell CG optimi.
MD.UseSaveXV           .false.      # Instructs Siesta to read the
                                    #   atomic positions and velocities stored
                                    #   in file SystemLabel.XV by a
                                    #   previous run.
MD.UseSaveCG           .false.      # Instructs to read the conjugate-gradient
                                    #   hystory information stored in file
                                    #   SystemLabel.CG by a previous run.
#
# Plotting the band structure
#
BandLinesScale pi/a
%block BandLines
1   0.0 0.0 0.0 \Gamma              # Start at \Gamma
100 1.0 0.0 0.0 X                   # 100 points from \Gamma to X
100 1.0 1.0 0.0 M                   # 100 points from X to M
100 1.0 1.0 1.0 R                   # 100 points from M to R
173 0.0 0.0 0.0 \Gamma              # 173 points from R to \Gamma
141 0.0 1.0 1.0 M                   # 141 points from \Gamma to M
100 0.0 0.0 1.0 X                   # 100 points from M to X
141 1.0 1.0 1.0 R                   # 141 points from X to R
%endblock BandLines
#
# Plotting the Projected Density Of States
#
%block ProjectedDensityOfStates
  -70.00  20.00  0.150 3000  eV
%endblock ProjectedDensityOfStates
%PDOS.kgrid_Monkhorst_Pack
   120  0  0  0.5
    0 120  0  0.5
    0  0 120  0.5
%end PDOS.kgrid_Monkhorst_Pack
************************** End of input data file *****************************

reinit: -----------------------------------------------------------------------
reinit: System Name: Calcium titanate (CaTiO3) cubic structure
reinit: -----------------------------------------------------------------------
reinit: System Label: CaTiO3
reinit: -----------------------------------------------------------------------

xc:
xc:  Cocktail exchange-correlation functional:
xc:
xc: Number     Functional     Authors     Weight(Ex)   Weight(Ec)
xc:

initatom: Reading input for the pseudopotentials and atomic orbitals ----------
Species number:   1 Atomic number:   20 Label: Ca
Species number:   2 Atomic number:   22 Label: Ti
Species number:   3 Atomic number:    8 Label: O

Ground state valence configuration:   4s02

Reading pseudopotential from: Ca.psml

PSML file version: 1.1
GGA--PBEsol XC_GGA_X_PBE_SOL--XC_GGA_C_PBE_SOL ps
 Using ATOM defaults for log grid...
PSML uuid: 3fe16a80-1d65-11e8-75e6-335877f7152c
Dumping pseudopotential information in formatted form in Ca.psdump
Ground state valence configuration:   4s02  3d02

[...]

PSML file version: 1.1
GGA--PBEsol XC_GGA_X_PBE_SOL--XC_GGA_C_PBE_SOL ps
 Using ATOM defaults for log grid...
PSML uuid: 4b1d8b90-1d65-11e8-71dd-645aef4ba7d4
Dumping pseudopotential information in formatted form in Ti.psdump
Ground state valence configuration:   2s02  2p04

Reading pseudopotential from: O.psml

PSML file version: 1.1
GGA--PBEsol XC_GGA_X_PBE_SOL--XC_GGA_C_PBE_SOL ps
 Using ATOM defaults for log grid...
PSML uuid: fa630a90-1d64-11e8-7ddc-64dedbfaf3ff
Dumping pseudopotential information in formatted form in O.psdump
Semicore shell(s) with  8 electrons included in the valence for
Ca
Semicore shell(s) with  8 electrons included in the valence for
Ti
relmxkb: Read Max KB Ang. Momentum=    3 for species Ca
relmxkb: Read Max KB Ang. Momentum=    3 for species Ti
relmxkb: Read Max KB Ang. Momentum=    3 for species O
Pseudopotential only contains V_ls up to l=2 -- lmxkb reset.
Pseudopotential only contains V_ls up to l=2 -- lmxkb reset.
Pseudopotential only contains V_ls up to l=2 -- lmxkb reset.

<basis_specs>
Ca                   Z=  20    Mass=  40.080        Charge=-0.17090E-01
Lmxo=2 Lmxkb= 2    BasisType=split      Semic=T
L=0  Nsemic=1  Cnfigmx=4
          n=1  nzeta=1  polorb=0  (3s)
            splnorm:   0.15000
               vcte:    62.189
               rinn:    4.8192
               qcoe:    0.0000
               qyuk:    0.0000
               qwid:   0.10000E-01
                rcs:    5.5305
            lambdas:    1.0000
          n=2  nzeta=2  polorb=0  (4s)
            splnorm:   0.15000
               vcte:    181.85
               rinn:    5.4983
               qcoe:    0.0000
               qyuk:    0.0000
               qwid:   0.10000E-01
                rcs:    6.6166      5.1838
            lambdas:    1.0000      1.0000
L=1  Nsemic=1  Cnfigmx=4
          n=1  nzeta=1  polorb=0  (3p)
            splnorm:   0.15000
               vcte:    43.485
               rinn:    4.2885
               qcoe:    0.0000
               qyuk:    0.0000
               qwid:   0.10000E-01
                rcs:    6.9894
            lambdas:    1.0000
          n=2  nzeta=1  polorb=0  (4p)
            splnorm:   0.15000
               vcte:    136.69
               rinn:    4.9908
               qcoe:    0.0000
               qyuk:    0.0000
               qwid:   0.10000E-01
                rcs:    7.4225
            lambdas:    1.0000
L=2  Nsemic=0  Cnfigmx=3
          n=1  nzeta=1  polorb=0  (3d)
            splnorm:   0.15000
               vcte:    82.574
               rinn:    5.7791
               qcoe:    0.0000
               qyuk:    0.0000
               qwid:   0.10000E-01
                rcs:    6.4171
            lambdas:    1.0000
L=0  Nkbl=2  erefs: 0.17977+309 0.17977+309
L=1  Nkbl=2  erefs: 0.17977+309 0.17977+309
L=2  Nkbl=1  erefs: 0.17977+309
</basis_specs>

atom: Called for Ca                    (Z =  20)

read_vps: Pseudopotential generation method:
read_vps: ONCVPSP-3.Hamann's oncvpsp
Total valence charge:   10.00000

read_vps: Pseudopotential includes a core correction:
read_vps: Pseudo-core for xc-correction

xc_check: Exchange-correlation functional:
xc_check: WARNING: Pseudopotential generated with GGA PBEsol functional

xc_check: Exchange-correlation functional:
xc_check: WARNING: Pseudopotential generated with GGA PBEsol functional
Got Vlocal (oncv-fit) from psml data
Choosing vlocal chloc cutoff:  2.905847
qtot up to nchloc:   10.00003822
atom: Maximum radius forchloc:    2.90585
atom: Maximum radius for r*vlocal+2*Zval:    2.90585
Reading KB projs from Ca psml data
Using scalar-relativistic projectors in PSML file

PSML: Kleinman-Bylander projectors:
   l= 0   rc=  1.479470   Ekb= 20.109694
   l= 0   rc=  1.479470   Ekb=  1.947554
   l= 1   rc=  1.479470   Ekb=  5.997917
   l= 1   rc=  1.479470   Ekb=  0.916204
   l= 2   rc=  1.876112   Ekb= -6.894596
   l= 2   rc=  1.876112   Ekb= -2.183301

PSML: Total number of  Kleinman-Bylander projectors:  18
atom: -------------------------------------------------------------------------

atom: SANKEY-TYPE ORBITALS:
atom: Selected multiple-zeta basis: split

atom: basis set generated (by rescaling the valence charge)
atom: for an anion of charge  -0.0171

SPLIT: Orbitals with angular momentum L= 0

SPLIT: Basis orbitals for state 3s

   izeta = 1
                 lambda =    1.000000
                     rc =    5.497235
                 energy =   -3.451482
                kinetic =    1.771210
    potential(screened) =   -5.222692
       potential(ionic) =  -16.719981

[...]

   izeta = 2
[...]
ts: Fix Hartree potential                           =    F
ts: Only save the overlap matrix S                  =    F
ts: **************************************************************

************************ Begin: TS CHECKS AND WARNINGS ************************
************************ End: TS CHECKS AND WARNINGS **************************

                        Begin CG opt. move =      0

outcoor: Atomic coordinates (fractional):
    0.00000000    0.00000000    0.00000000   1       1  Ca
    0.50000000    0.50000000    0.50000000   2       2  Ti
    0.00000000    0.50000000    0.50000000   3       3  O
    0.50000000    0.00000000    0.50000000   3       4  O
    0.50000000    0.50000000    0.00000000   3       5  O

[...]

outcell: Unit cell vectors (Ang):
        3.850803    0.000000    0.000000
        0.000000    3.850803    0.000000
        0.000000    0.000000    3.850803

outcell: Cell vector modules (Ang)   :    3.850803    3.850803    3.850803
outcell: Cell angles (23,13,12) (deg):     90.0000     90.0000     90.0000
outcell: Cell volume (Ang**3)        :     57.1023
<dSpData1D:S at geom step 0
  <sparsity:sparsity for geom step 0
    nrows_g=72 nrows=72 sparsity=17.5779 nnzs=91124, refcount: 7>
  <dData1D:(new from dSpData1D) n=91124, refcount: 1>
refcount: 1>
new_DM -- step:     1
Initializing Density Matrix...

Attempting to read DM from file... Failed...
DM filled with atomic data:
<dSpData2D:DM initialized from atoms
  <sparsity:sparsity for geom step 0
    nrows_g=72 nrows=72 sparsity=17.5779 nnzs=91124, refcount: 8>
  <dData2D:DM n=91124 m=1, refcount: 1>
refcount: 1>
No. of atoms with KB's overlaping orbs in proc 0. Max # of overlaps:      52     340
New grid distribution:   1
           1       1:   30    1:   30    1:   30

InitMesh: MESH =    60 x    60 x    60 =      216000
InitMesh: (bp) =    30 x    30 x    30 =       27000
InitMesh: Mesh cutoff (required, used) =   600.000   670.968 Ry
ExtMesh (bp) on 0 =   154 x   154 x   154 =     3652264
PhiOnMesh: Number of (b)points on node 0 =                27000
PhiOnMesh: nlist on node 0 =              3579575

stepf: Fermi-Dirac step function

siesta: Program's energy decomposition (eV):
siesta: Ebs     =      -819.545740
siesta: Eions   =      6014.726872
siesta: Ena     =       995.247445
siesta: Ekin    =      2023.053184
siesta: Enl     =      -178.154089
siesta: Eso     =         0.000000
siesta: Eldau   =         0.000000
siesta: DEna    =       -74.690873
siesta: DUscf   =        61.132660
siesta: DUext   =         0.000000
siesta: Enegf   =         0.000000
siesta: Exc     =      -799.584955
siesta: eta*DQ  =         0.000000
siesta: Emadel  =         0.000000
siesta: Emeta   =         0.000000
siesta: Emolmec =         0.000000
siesta: Ekinion =         0.000000
siesta: Eharris =     -3903.390682
siesta: Etot    =     -3987.723499
siesta: FreeEng =     -3987.723499

SCF Convergence by DM+H criterion
max |DM_out - DM_in|         :     0.0000435031
max |H_out - H_in|      (eV) :     0.0000845393
SCF cycle converged after 12 iterations

Using DM_out to compute the final energy and forces
No. of atoms with KB's overlaping orbs in proc 0. Max # of overlaps:      52     340

siesta: E_KS(eV) =            -4021.0688

siesta: E_KS - E_eggbox =     -4021.0688

siesta: Atomic forces (eV/Ang):
   Tot    0.000000    0.000000    0.000000
   Max    0.000000
   Res    0.000000    sqrt( Sum f_i^2 / 3N )
   Max    0.000000    constrained

Stress-tensor-Voigt (kbar):        0.29        0.29        0.29        0.00       -0.00        0.00
(Free)E + p*V (eV/cell)    -4021.0792
Target enthalpy (eV/cell)    -4021.0688

siesta: Stress tensor (static) (eV/Ang**3):
         0.000184    0.000000    0.000000
         0.000000    0.000184   -0.000000
         0.000000   -0.000000    0.000184

siesta: Pressure (static):         -0.29422687  kBar

siesta: Stress tensor (total) (eV/Ang**3):
         0.000184    0.000000    0.000000
         0.000000    0.000184   -0.000000
         0.000000   -0.000000    0.000184

siesta: Pressure (total):         -0.29422687  kBar

cgvc: No target stress found, assuming hydrostatic MD.TargetPressure.

cgvc: Target stress (kBar)
cgvc:        -0.000       0.000       0.000
cgvc:         0.000      -0.000       0.000
cgvc:         0.000       0.000      -0.000

[...]

outcoor: Atomic coordinates (fractional):
    0.00000000    0.00000000   -0.00000000   1       1  Ca
    0.50000000    0.50000000    0.50000000   2       2  Ti
   -0.00000000    0.50000000    0.50000000   3       3  O
    0.50000000    0.00000000    0.50000000   3       4  O
    0.50000000    0.50000000    0.00000000   3       5  O
 Kpoints in:          108 . Kpoints trimmed:          108

siesta: k-grid: Number of k-points =       108
siesta: k-points from Monkhorst-Pack grid
siesta: k-cutoff (effective) =    11.341 Ang
siesta: k-point supercell and displacements
siesta: k-grid:    6   0   0      0.500
siesta: k-grid:    0   6   0      0.500
siesta: k-grid:    0   0   6      0.500

[...]

outcell: Cell vector modules (Ang)   :    3.780213    3.780214    3.780212
outcell: Cell angles (23,13,12) (deg):     90.0000     90.0000     90.0000
outcell: Cell volume (Ang**3)        :     54.0193
<dSpData1D:S at geom step 1
  <sparsity:sparsity for geom step 1
    nrows_g=72 nrows=72 sparsity=19.2458 nnzs=99770, refcount: 7>
  <dData1D:(new from dSpData1D) n=99770, refcount: 1>
refcount: 1>
new_DM -- step:     2
Re-using DM from previous geometries...
Number of DMs in history: 1
 DM extrapolation coefficients:
1   1.00000
New DM after history re-use:
<dSpData2D:SpM extrapolated using coords
  <sparsity:sparsity for geom step 1
    nrows_g=72 nrows=72 sparsity=19.2458 nnzs=99770, refcount: 8>
  <dData2D:(temp array for extrapolation) n=99770 m=1, refcount: 1>
refcount: 1>
No. of atoms with KB's overlaping orbs in proc 0. Max # of overlaps:      64     340
New grid distribution:   1
           1       1:   30    1:   30    1:   30

[...]

        iscf     Eharris(eV)        E_KS(eV)     FreeEng(eV)     dDmax    Ef(eV) dHmax(eV)
   scf:    1    -4020.181225    -4020.937456    -4020.937456  0.108314 -5.737008  0.428999
   scf:    2    -4020.804013    -4020.906549    -4020.906549  0.115017 -5.448089  0.698472
   scf:    3    -4020.967086    -4020.953721    -4020.953722  0.070370 -5.607093  0.066547
   scf:    4    -4020.953991    -4020.953874    -4020.953874  0.004163 -5.597657  0.046358
   scf:    5    -4020.953955    -4020.953918    -4020.953918  0.001772 -5.595377  0.014342
   scf:    6    -4020.953926    -4020.953923    -4020.953923  0.000582 -5.595090  0.000704
   scf:    7    -4020.953923    -4020.953923    -4020.953923  0.000038 -5.595029  0.000466

[...]

                        Begin CG opt. move =      2

outcoor: Atomic coordinates (fractional):
    0.00000000    0.00000000   -0.00000000   1       1  Ca
    0.50000000    0.50000000    0.50000000   2       2  Ti
   -0.00000000    0.50000000    0.50000000   3       3  O
    0.50000000    0.00000000    0.50000000   3       4  O
    0.50000000    0.50000000    0.00000000   3       5  O
 Kpoints in:          108 . Kpoints trimmed:          108

siesta: k-grid: Number of k-points =       108
siesta: k-points from Monkhorst-Pack grid
siesta: k-cutoff (effective) =    11.552 Ang
siesta: k-point supercell and displacements
siesta: k-grid:    6   0   0      0.500
siesta: k-grid:    0   6   0      0.500
siesta: k-grid:    0   0   6      0.500

superc: Internal auxiliary supercell:     7 x     7 x     7  =     343
superc: Number of atoms, orbitals, and projectors:   1715  24696  25725

[...]

outcell: Cell vector modules (Ang)   :    3.850626    3.850626    3.850626
outcell: Cell angles (23,13,12) (deg):     90.0000     90.0000     90.0000
outcell: Cell volume (Ang**3)        :     57.0945
<dSpData1D:S at geom step 2
  <sparsity:sparsity for geom step 2
    nrows_g=72 nrows=72 sparsity=17.5779 nnzs=91124, refcount: 7>
  <dData1D:(new from dSpData1D) n=91124, refcount: 1>
refcount: 1>
new_DM -- step:     3
Re-using DM from previous geometries...
Number of DMs in history: 1
 DM extrapolation coefficients:
1   1.00000
New DM after history re-use:
<dSpData2D:SpM extrapolated using coords
  <sparsity:sparsity for geom step 2
    nrows_g=72 nrows=72 sparsity=17.5779 nnzs=91124, refcount: 8>
  <dData2D:(temp array for extrapolation) n=91124 m=1, refcount: 1>
refcount: 1>
No. of atoms with KB's overlaping orbs in proc 0. Max # of overlaps:      52     340
New grid distribution:   1
           1       1:   30    1:   30    1:   30

InitMesh: MESH =    60 x    60 x    60 =      216000
InitMesh: (bp) =    30 x    30 x    30 =       27000
InitMesh: Mesh cutoff (required, used) =   600.000   671.029 Ry
ExtMesh (bp) on 0 =   154 x   154 x   154 =     3652264
PhiOnMesh: Number of (b)points on node 0 =                27000
PhiOnMesh: nlist on node 0 =              3580037

        iscf     Eharris(eV)        E_KS(eV)     FreeEng(eV)     dDmax    Ef(eV) dHmax(eV)
   scf:    1    -4021.579049    -4021.050617    -4021.050617  0.107860 -5.384923  0.456606
   scf:    2    -4020.866870    -4021.005260    -4021.005260  0.114925 -5.676979  0.793536
   scf:    3    -4021.084647    -4021.068529    -4021.068530  0.071459 -5.512263  0.063910
   scf:    4    -4021.068840    -4021.068711    -4021.068712  0.004502 -5.523085  0.047083
   scf:    5    -4021.068791    -4021.068754    -4021.068754  0.001702 -5.525421  0.017978
   scf:    6    -4021.068766    -4021.068761    -4021.068761  0.000745 -5.526022  0.000729
   scf:    7    -4021.068761    -4021.068761    -4021.068761  0.000033 -5.525982  0.000455

SCF Convergence by DM+H criterion
max |DM_out - DM_in|         :     0.0000328352
max |H_out - H_in|      (eV) :     0.0004547175
SCF cycle converged after 7 iterations

Using DM_out to compute the final energy and forces
No. of atoms with KB's overlaping orbs in proc 0. Max # of overlaps:      52     340

siesta: E_KS(eV) =            -4021.0688

siesta: Atomic forces (eV/Ang):
   Tot   -0.000000   -0.000000    0.000000
   Max    0.000000
   Res    0.000000    sqrt( Sum f_i^2 / 3N )
   Max    0.000000    constrained

Stress-tensor-Voigt (kbar):       -0.02       -0.02       -0.02        0.00       -0.00        0.00
(Free)E + p*V (eV/cell)    -4021.0681
Target enthalpy (eV/cell)    -4021.0688

siesta: Stress tensor (static) (eV/Ang**3):
        -0.000011    0.000000    0.000000
         0.000000   -0.000011    0.000000
         0.000000   -0.000000   -0.000011

siesta: Pressure (static):          0.01723191  kBar

siesta: Stress tensor (total) (eV/Ang**3):
        -0.000011    0.000000    0.000000
         0.000000   -0.000011    0.000000
         0.000000   -0.000000   -0.000011

siesta: Pressure (total):          0.01723191  kBar

outcoor: Relaxed atomic coordinates (fractional):
    0.00000000    0.00000000   -0.00000000   1       1  Ca
    0.50000000    0.50000000    0.50000000   2       2  Ti
   -0.00000000    0.50000000    0.50000000   3       3  O
    0.50000000    0.00000000    0.50000000   3       4  O
    0.50000000    0.50000000    0.00000000   3       5  O

outcell: Unit cell vectors (Ang):
        3.850626   -0.000000   -0.000000
       -0.000000    3.850626    0.000000
       -0.000000    0.000000    3.850626

outcell: Cell vector modules (Ang)   :    3.850626    3.850626    3.850626
outcell: Cell angles (23,13,12) (deg):     90.0000     90.0000     90.0000
outcell: Cell volume (Ang**3)        :     57.0945
Computing bands...

siesta: PDOS info
siesta: E1 -- E2, sigma [eV], nhist:  -70.000 --   20.000    0.150 3000

siesta: Program's energy decomposition (eV):
siesta: Ebs     =      -914.883593
siesta: Eions   =      6014.726872
siesta: Ena     =       995.240804
siesta: Ekin    =      1902.051968
siesta: Enl     =      -113.806307
siesta: Eso     =         0.000000
siesta: Eldau   =         0.000000
siesta: DEna    =       -24.987826
siesta: DUscf   =         7.459953
siesta: DUext   =         0.000000
siesta: Enegf   =         0.000000
siesta: Exc     =      -772.300481
siesta: eta*DQ  =         0.000000
siesta: Emadel  =         0.000000
siesta: Emeta   =         0.000000
siesta: Emolmec =         0.000000
siesta: Ekinion =         0.000000
siesta: Eharris =     -4021.068761
siesta: Etot    =     -4021.068761
siesta: FreeEng =     -4021.068761

siesta: Final energy (eV):
siesta:  Band Struct. =    -914.883593
siesta:       Kinetic =    1902.051968
siesta:       Hartree =     875.849923
siesta:       Eldau   =       0.000000
siesta:       Eso     =       0.000000
siesta:    Ext. field =       0.000000
siesta:       Enegf   =       0.000000
siesta:   Exch.-corr. =    -772.300481
siesta:  Ion-electron =   -3733.749242
siesta:       Ion-ion =   -2292.920929
siesta:       Ekinion =       0.000000
siesta:         Total =   -4021.068761
siesta:         Fermi =      -5.525982

siesta: Stress tensor (static) (eV/Ang**3):
siesta:    -0.000011    0.000000    0.000000
siesta:     0.000000   -0.000011    0.000000
siesta:     0.000000   -0.000000   -0.000011

siesta: Constrained stress tensor (static) (eV/Ang**3):
siesta:    -0.000011    0.000000    0.000000
siesta:     0.000000   -0.000011   -0.000000
siesta:     0.000000   -0.000000   -0.000011

siesta: Cell volume =         57.094472 Ang**3

siesta: Pressure (static):
siesta:                Solid            Molecule  Units
siesta:           0.00000012          0.00000012  Ry/Bohr**3
siesta:           0.00001076          0.00001076  eV/Ang**3
siesta:           0.01723191          0.01723219  kBar
(Free)E+ p_basis*V_orbitals  =       -4017.547498
(Free)Eharris+ p_basis*V_orbitals  =       -4017.547498

Routine            Calls   Time/call    Tot.time        %
siesta                 1     630.800     630.800   100.00
Setup                  1       0.837       0.837     0.13
bands                  3       2.311       6.932     1.10
KSV_init               1       0.000       0.000     0.00
IterGeom               3     205.291     615.872    97.63
state_init             3       4.979      14.936     2.37
hsparse                3       0.102       0.305     0.05
overlap                3       4.749      14.248     2.26
Setup_H0               3      41.285     123.855    19.63
naefs                  6       0.002       0.013     0.00
MolMec                 6       0.000       0.000     0.00
kinefsm                6       2.425      14.549     2.31
nlefsm                 6      11.592      69.552    11.03
DHSCF_Init             3      13.915      41.745     6.62
DHSCF1                 3       0.557       1.671     0.26
INITMESH               3       0.000       0.000     0.00
DHSCF2                 3      13.358      40.073     6.35
REMESH                 3       3.072       9.217     1.46
REORD                109       0.001       0.079     0.01
PHION                  3       9.169      27.507     4.36
COMM_BSC              73       0.001       0.055     0.01
POISON                35       0.027       0.930     0.15
fft                   70       0.010       0.671     0.11
IterSCF               26      15.150     393.911    62.45
setup_H               29       9.605     278.545    44.16
DHSCF                 32      11.233     359.454    56.98
DHSCF3                32       9.630     308.165    48.85
rhoofd                32       4.802     153.667    24.36
CellXC                32       0.798      25.531     4.05
gridxc@cellXC         32       0.798      25.531     4.05
vmat                  32       3.996     127.866    20.27
compute_dm            26       4.431     115.217    18.27
diagon                26       4.416     114.823    18.20
c-eigval            3664       0.011      39.856     6.32
c-buildHS           3664       0.009      32.112     5.09
cdiag               6580       0.004      23.126     3.67
cdiag1              6580       0.000       1.816     0.29
cdiag2              6580       0.001       4.980     0.79
cdiag3              6580       0.002      15.288     2.42
c-eigvec            2808       0.015      42.730     6.77
cdiag4              2916       0.000       0.807     0.13
c-buildD            2808       0.014      38.954     6.18
MIXER                 23       0.003       0.067     0.01
PostSCF                3      27.721      83.164    13.18
DHSCF4                 3      17.096      51.289     8.13
dfscf                  3      15.936      47.808     7.58
overfsm                3       0.073       0.219     0.03
state_analysis         3       0.001       0.002     0.00
siesta_move            3       0.001       0.002     0.00
Analysis               1      14.081      14.081     2.23
pdos                   1       7.132       7.132     1.13
optical                1       0.000       0.000     0.00

>> End of run:   8-APR-2020  11:04:35
Job completed